c t mc
p cnf 68 465
-1 8 6 3 11 0
-12 -5 2 0
-6 1 -9 -10 12 -4 0
4 -2 -7 9 -11 10 5 -3 -8 0
7 2 8 10 1 0
12 -3 10 0
-9 -11 10 0
6 -4 12 7 0
9 -1 2 5 0
-7 8 -2 0
12 10 -11 0
-2 -8 5 10 7 12 11 -3 1 0
5 -1 -11 7 8 9 0
-4 -1 10 -5 0
1 12 10 8 0
9 4 -2 10 3 0
-12 -10 -2 -11 0
6 12 1 0
1 -10 -6 0
-1 7 -5 4 10 -8 3 -9 0
6 5 8 0
-1 11 9 0
-6 -3 1 0
9 4 -11 0
11 5 4 6 -7 0
8 -7 10 4 -5 0
-1 12 -7 0
8 3 -9 0
12 -6 -2 0
12 7 8 -9 -3 10 11 0
-10 -9 7 0
-3 -12 -8 1 0
4 10 12 1 11 9 0
10 8 1 0
-6 9 -10 0
-6 -10 8 -7 0
10 -5 6 -9 0
-5 -2 -25 0
26 3 22 10 -4 27 -24 -14 0
3 14 -6 -27 -2 5 -13 0
25 6 -16 0
-5 3 -26 20 -2 29 18 -4 15 -22 -23 7 -12 -6 24 10 0
-15 4 21 16 0
19 -29 9 17 0
5 12 7 23 -18 0
-21 28 -17 12 -11 0
9 7 10 0
2 -28 13 -11 -19 -10 -20 -12 -9 8 0
-24 -27 -3 -25 0
20 8 14 10 19 0
22 28 -15 0
-14 -5 -1 16 0
-7 -28 13 0
27 -13 -14 -25 0
23 6 -5 0
-19 27 -24 0
18 -6 -12 0
-19 28 17 0
23 7 -6 0
25 14 -1 0
6 -25 17 0
-11 19 -8 3 -7 0
4 19 11 0
11 2 12 0
-5 12 4 -18 0
5 -3 -11 0
17 15 16 0
-6 12 3 -21 -26 -9 -14 -2 11 17 20 0
-3 -6 0
-13 28 12 25 -5 -2 20 -23 0
-12 17 -25 -28 0
-16 8 -14 1 0
11 16 -20 4 10 0
-22 -5 23 -6 0
-28 -3 20 -23 0
-29 4 -25 1 0
-19 18 -28 -3 0
-2 24 -11 19 0
-5 -13 -6 0
17 20 5 -10 14 15 25 0
-10 -2 -14 5 -7 15 17 -28 0
5 4 -26 -22 -27 0
-1 -7 25 -10 17 0
-4 -29 -8 -13 28 0
-6 -25 -8 0
3 -19 21 0
-5 -17 4 -21 15 -13 9 -22 10 0
-29 -4 -28 0
-4 -19 -2 -1 0
-3 -8 14 0
6 10 -21 14 -5 0
7 2 21 0
-1 10 11 0
6 7 0
-18 21 -15 0
8 4 0
23 -28 -7 -21 -16 0
-19 23 -15 8 -7 26 0
25 -9 21 0
15 -26 -22 0
-11 16 9 -15 -8 29 13 1 -24 5 0
-3 -10 22 12 0
13 1 8 16 -7 -10 -3 0
-18 19 8 0
-3 15 -16 29 0
6 -9 12 0
5 -10 22 11 -27 0
-27 -11 -12 -9 25 22 -19 3 -5 4 0
10 11 4 0
14 -5 29 0
11 9 16 22 27 7 0
-11 12 0
19 -15 -6 5 11 -22 -27 16 0
12 -29 1 10 0
-8 -9 29 -16 14 0
1 -9 0
-2 28 -8 6 -3 15 0
-9 -3 -21 -8 0
20 -24 -3 0
-21 -25 -1 -18 0
8 26 2 -14 24 17 23 0
-26 -8 29 -3 0
-9 -20 -21 10 12 -11 0
-6 -11 12 9 0
30 -37 33 0
-41 -18 -32 39 -38 6 -25 -21 0
-36 28 -14 0
-27 12 0
-39 -14 23 0
-30 -19 13 -11 0
-35 -40 1 32 0
-15 41 38 -14 18 0
-33 8 -25 0
-34 35 40 36 -1 -28 0
16 -1 -19 5 -31 0
-5 34 31 -12 0
-15 37 41 34 38 -28 0
-8 21 -23 9 30 0
-29 -12 24 36 0
38 -20 -37 0
-40 -41 -13 6 19 0
40 -6 15 -17 0
-34 -10 31 28 0
-7 38 31 -33 0
9 39 7 32 0
-35 32 -26 0
25 33 7 5 0
-26 -30 -28 -39 -41 9 -14 35 1 0
-15 9 -34 33 40 0
-31 -39 0
34 6 -39 -24 -37 0
-41 -22 31 -36 -18 29 37 0
-11 -9 31 0
-8 -32 25 31 35 4 0
-15 -13 -26 -33 6 32 40 0
32 37 -18 41 -36 -38 -19 11 30 7 35 0
-38 30 -41 9 10 -18 0
-6 -31 12 -33 0
-25 33 -1 0
-25 20 -24 35 33 -40 0
2 21 -35 -6 31 20 0
-1 -28 16 -6 -39 0
-3 -39 -19 -6 -27 -16 35 33 36 -31 0
-1 40 35 -28 -30 7 -27 24 0
-36 35 0
-35 -30 12 -39 2 0
36 26 28 -37 0
13 -10 -6 -8 0
41 -39 33 36 0
36 -1 -2 -39 -19 0
27 -20 -35 39 0
7 40 26 27 31 0
-41 32 -34 -36 -30 -23 -37 33 38 0
-30 -18 -26 0
-28 -26 -29 10 0
3 38 41 39 0
-36 41 20 13 0
40 23 41 0
32 -35 10 -23 -40 0
5 33 -41 0
-26 -34 31 -23 -36 -39 0
2 5 -38 -33 0
-34 36 21 0
-40 -19 -34 0
-40 1 37 35 0
-37 -36 -10 4 0
-30 -6 34 0
6 -22 12 -30 5 -26 -34 0
12 31 14 0
37 34 -39 0
36 -30 34 38 -33 -3 -31 7 0
-24 -29 31 0
-32 34 31 36 40 0
32 12 -35 37 0
-17 31 -28 0
-15 18 31 0
34 35 27 21 -41 0
-31 -11 12 32 0
-39 25 0
34 -38 -25 0
-34 29 -35 41 0
-32 -39 -13 0
-13 -8 -3 0
39 25 13 31 -37 35 7 0
-33 20 -9 -35 -40 -21 0
-28 31 -25 40 -17 -12 35 0
13 20 -5 4 -39 33 -10 0
-27 18 -39 -35 0
-25 -24 33 -2 41 0
-18 19 -27 0
40 -2 -26 -31 -30 -37 0
-35 31 -5 32 0
-35 -30 -18 -36 -1 0
-30 -37 0
-6 34 -5 3 -30 -41 -13 21 -9 4 -38 0
35 -34 -17 -15 2 0
-34 -24 31 0
-35 -40 -19 0
36 11 -31 0
30 10 36 24 0
33 32 35 0
-41 1 30 0
31 -39 -23 0
22 -27 -33 38 -24 37 -7 0
3 -27 -28 34 32 0
-39 -36 23 38 7 -4 -11 0
-7 -39 -38 -6 -37 0
29 -39 7 -12 -38 22 0
-28 -26 36 39 24 31 32 -30 -35 0
7 -15 9 -22 0
31 -32 -20 0
13 2 -16 -26 -33 8 39 35 37 0
-30 -25 -41 -34 17 0
-29 22 9 -13 0
-38 32 41 0
31 1 36 0
9 -2 24 -7 0
-34 -35 -37 0
28 -9 -37 0
-34 -35 24 0
-34 -4 -10 -29 0
-5 32 -31 -35 21 0
7 41 -25 0
19 10 -1 -39 37 -24 0
-26 -32 2 0
34 -29 6 -32 38 -26 0
50 -55 -15 0
-43 -37 53 0
15 12 49 -3 -53 52 -28 0
44 36 54 41 55 56 0
-8 46 -22 0
48 45 43 0
-27 29 -7 39 16 -49 22 0
-30 -2 51 0
-31 42 38 40 0
-44 -47 -51 -34 9 0
36 -7 27 -15 0
-37 -50 -45 10 0
33 -54 -36 -18 -48 -37 0
-42 47 -52 -33 0
-56 -46 -44 50 20 10 -49 45 8 35 0
49 -30 17 53 -21 0
-44 42 -51 0
45 47 42 0
45 54 -51 0
4 37 53 0
-5 -40 -4 0
-46 -53 -42 0
-40 47 -4 0
-53 56 -2 0
25 56 0
-52 -34 51 0
-30 -20 -47 -44 0
30 48 -45 -16 -32 9 -4 1 -27 40 0
-39 -48 15 10 30 0
4 21 14 0
10 12 -25 0
-30 -6 7 0
51 43 46 47 33 0
-3 -44 -46 0
-42 18 27 38 -51 -56 15 -50 0
50 36 -43 54 0
-53 22 14 -54 -50 0
-2 -50 45 0
53 -42 -33 0
-37 35 -56 0
-51 -53 -55 14 -46 -37 0
-18 -52 22 20 0
40 -31 -19 -55 42 -2 -24 -52 21 39 -38 0
25 -56 -11 -42 0
54 -8 -39 30 -51 48 26 0
52 56 -43 -1 0
54 19 46 45 -36 0
-48 49 -55 50 0
52 -34 48 0
32 -34 33 0
50 -35 47 -43 -30 -46 0
-46 43 38 -33 0
-46 16 52 0
-30 46 0
56 51 35 0
45 -51 42 0
56 32 6 0
-14 48 -38 36 -7 -15 47 44 -53 0
-55 -54 40 0
51 -41 34 14 -18 0
-37 -55 1 43 0
-36 31 -39 43 -46 0
-52 -29 44 -48 -20 -54 0
4 -30 32 0
38 -44 -49 -5 0
-42 -39 47 -48 50 -4 -41 0
-46 53 -52 30 0
-36 -47 51 -41 0
44 -7 27 0
-9 -36 -18 -38 0
-34 -33 -42 0
55 32 -14 -20 41 51 -52 0
-21 52 12 0
3 -44 10 41 -27 -35 -50 -52 1 11 0
54 -32 -39 26 -1 -23 17 0
-39 19 51 12 0
48 8 35 -56 42 0
-1 17 43 -42 -47 40 0
33 -7 10 43 19 46 -15 20 -48 0
40 16 -42 0
41 -3 -44 -26 42 -30 54 34 0
-53 -39 -32 -45 -47 0
-10 -33 43 0
8 -32 42 0
-55 53 -33 0
-50 48 29 0
54 13 46 -41 0
-34 46 13 0
25 46 -35 0
-12 -9 -6 0
43 -31 -44 -46 7 0
32 -54 -25 -39 -20 0
29 -53 -35 -31 7 44 -15 -46 -47 -32 0
43 30 52 -48 0
-31 10 -34 0
46 52 4 -37 0
47 -56 -51 0
1 43 51 -9 46 0
-40 48 5 20 47 0
-55 -18 17 0
43 -59 -56 0
-47 56 -12 0
-58 53 67 -60 -66 0
10 -57 -51 0
-48 -33 -15 -67 0
13 44 65 61 66 -62 58 0
-49 -4 63 0
22 -68 59 -9 57 60 37 -64 0
62 13 56 68 0
-29 -33 54 -61 -37 39 0
-31 -34 -21 -15 -63 -16 0
52 -27 -15 0
64 -65 48 0
-11 -14 -67 -32 0
68 60 -66 48 52 -67 23 15 -49 39 0
-68 51 38 -63 53 36 0
66 -67 -42 -61 -28 0
-50 -58 28 -31 0
-63 6 -47 9 0
-33 -42 -57 0
38 -43 -61 32 0
-55 58 -68 0
-21 66 67 0
-56 2 -68 33 -41 0
58 63 -1 -41 66 -33 -60 25 0
57 59 67 -41 0
-63 -47 51 -62 43 0
-38 -43 -60 -45 48 0
59 51 -68 0
-59 65 -51 0
-68 -54 57 60 -59 0
59 -38 -65 -66 0
59 58 65 62 0
-63 -67 64 0
-6 60 -61 0
-65 68 51 -64 0
-54 51 -64 45 -66 0
-6 -61 53 63 0
53 -31 -33 64 -63 0
-8 -51 65 -64 48 0
64 -65 46 -58 -39 0
-58 47 64 0
-63 68 -52 0
45 -65 -32 0
-14 -64 49 25 -68 58 0
11 -41 15 -57 0
28 54 34 58 45 0
-58 64 60 38 -37 39 0
-35 46 38 -68 0
68 64 36 56 53 -43 -33 0
-63 43 -32 -35 66 0
18 35 44 58 0
-65 -43 54 -68 0
63 40 48 59 62 -31 -52 -57 42 0
-9 3 66 0
-34 -60 -35 0
-63 36 -67 64 0
-61 56 67 30 65 -20 0
-61 -17 62 57 68 60 -46 0
65 -36 -47 0
-58 60 0
-53 -61 65 0
-12 -31 -53 0
66 62 -25 59 -23 58 -60 -64 0
-68 30 -66 0
-50 65 -55 46 -58 0
-44 -43 50 -29 67 -31 14 -57 -66 -64 0
-65 -52 61 0
27 -30 -60 -14 -68 -44 64 59 -8 -65 0
-30 41 -42 -64 0
-5 23 59 -64 0
-68 62 59 -31 -37 -30 0
58 66 62 -44 -28 57 0
-47 32 -65 49 -62 -33 37 68 66 0
-42 -57 25 -68 0
57 -50 -67 7 0
-68 -23 61 -58 50 -64 0
-67 57 -1 -62 -10 0
65 67 59 52 60 62 7 0
-44 47 66 0
68 25 36 0
30 -66 -67 0
64 -51 63 -31 -61 0
-23 52 -4 58 -60 5 0
-38 15 62 -17 68 0
-31 -63 48 -27 -53 19 0
-49 -60 -58 -27 32 62 10 -6 -67 0
58 -59 -63 0
-54 36 67 0
-31 67 20 -43 0
-60 67 50 0
-54 -68 66 45 0
-53 -49 -46 0
37 -68 46 8 -64 39 0
-36 -56 3 2 0
-51 -58 -34 0
-39 -66 58 -62 63 0
57 -9 -60 -51 67 47 43 58 40 0
66 -59 -46 0
60 -33 -62 0
-68 -37 -54 -20 0
58 -63 -19 0
-67 66 -39 0
-66 -65 -42 0
-65 67 -54 36 0
46 14 29 -58 -35 49 0
63 -7 -38 0
-20 25 36 0
59 62 58 -23 42 0
-57 50 9 59 0
67 68 59 57 53 0
29 43 -52 62 -57 -60 39 58 64 0
57 -49 -41 -33 68 -44 0
-7 -63 17 0
56 67 50 1 -32 62 -60 0
67 27 68 64 0
-62 -36 54 0
-64 31 54 55 65 58 0
-64 44 -45 0
c p show 1 2 3 4 5 6 7 8 9 10 11 12 13 14 15 16 17 18 19 20 21 22 23 24 25 26 27 28 29 30 31 32 33 34 35 36 37 38 39 40 41 42 43 44 45 46 47 48 49 50 51 52 53 54 55 56 57 58 59 60 61 0
