c seed 342388
c max width 12
c layers 4
c layer[0] = [1..11] w=11 v=11 c=36 r=3.27
c layer[1] = [12..21] w=10 v=21 c=69 r=3.29
c layer[2] = [22..33] w=12 v=22 c=91 r=4.14
c layer[3] = [34..43] w=10 v=22 c=90 r=4.09
p cnf 43 286
1 6 -2 11 0
2 7 -4 -8 5 9 -11 0
-10 8 3 -5 0
-1 -9 -3 4 0
-7 -6 10 2 5 0
2 -6 -8 -3 1 10 7 -4 9 0
-6 -7 10 -9 -5 11 -2 0
-6 -10 5 0
-8 5 2 4 0
-10 -2 0
6 -3 -1 -7 9 2 0
-7 8 9 0
-11 4 8 3 1 -5 0
-2 10 -1 0
4 -6 -3 0
-7 -2 11 -6 3 4 0
4 -5 -6 3 0
5 -6 -11 0
-1 4 -2 -10 0
-11 4 -10 0
-2 -11 8 5 0
3 -1 0
4 -11 -10 9 0
8 11 -7 -6 0
-10 -7 11 0
-4 0
-2 -4 1 0
3 1 0
6 -8 -3 4 0
-8 6 -5 0
-6 -1 11 0
2 3 8 6 0
4 11 -2 6 1 0
-4 -7 -2 11 0
10 7 -8 0
7 8 10 -3 0
-18 13 12 0
-17 -7 21 0
-2 16 8 0
15 1 9 0
-2 18 0
-3 -9 2 11 19 17 -21 0
11 -3 7 -20 0
-15 20 -16 -13 0
-12 -10 14 0
-6 -9 -19 -14 0
10 5 8 0
-19 1 -12 0
-5 -12 -10 -1 8 0
-15 20 -10 17 0
3 -1 17 13 6 0
19 18 13 -2 0
-12 -7 3 -8 9 -1 0
11 3 18 5 -16 21 0
-15 -10 -14 17 -4 0
10 15 6 0
-21 8 20 -4 -14 -7 -2 19 -11 -1 0
3 -5 -14 0
5 -17 20 0
-9 -15 16 0
12 2 -17 9 15 -20 0
1 20 9 0
-19 3 -2 0
-11 5 18 -16 0
17 10 3 0
12 -15 -16 0
-14 -7 1 -2 0
6 16 -8 0
3 -4 -14 6 0
-18 -21 -7 13 0
-19 15 -20 6 -3 0
-9 8 17 -11 15 -18 -12 0
3 -15 -21 -4 -2 0
21 -18 -8 0
13 -17 10 -21 0
4 -21 17 -19 0
9 -21 20 0
12 2 0
-21 5 1 0
14 -4 -10 0
1 -12 20 0
-15 9 -8 0
-11 6 4 -17 15 -19 -7 0
-1 -20 -10 0
3 -2 19 15 0
18 9 -21 -12 15 0
-15 -6 -18 0
-2 4 -7 -20 -10 -5 0
11 -7 3 -17 -12 -21 8 18 9 6 14 -2 16 0
13 21 -3 -12 16 0
-18 17 11 -9 10 0
-3 15 7 0
-16 21 18 0
14 -20 15 -13 -6 19 0
6 7 -5 2 -1 -16 11 0
18 3 2 0
5 3 -20 -11 10 -16 2 9 -1 -15 0
8 5 1 0
-10 -17 -3 7 21 0
-13 -7 6 0
6 -11 17 0
-13 17 5 10 2 7 0
-10 -9 6 -19 0
-20 -19 -17 0
16 10 -11 -21 4 -20 6 0
-21 32 28 26 8 23 -25 31 33 0
-1 -2 -14 0
-22 -6 15 0
-7 -21 22 17 20 0
5 -32 -23 0
-26 -24 30 -13 -29 -21 15 -28 0
9 -31 -30 0
25 27 -33 0
-9 -18 29 -8 24 20 0
-27 3 28 0
14 -27 23 0
8 20 -17 0
17 22 18 27 10 0
-11 -25 -13 0
13 25 -16 0
30 -22 -14 -18 -23 3 -11 0
23 32 -19 14 -7 0
12 32 22 3 0
-4 -33 -18 0
28 3 -32 -31 23 0
17 -9 -19 6 0
28 33 -15 -22 0
31 -21 7 28 0
-21 -7 24 31 0
-27 23 30 -24 0
-16 -15 21 4 0
-18 4 33 -26 -14 9 -21 -28 -25 15 -24 -30 -2 23 27 -20 -13 0
-24 13 30 -28 19 -11 0
-32 -33 26 0
-30 -27 -8 19 33 0
-26 -20 2 19 -24 0
10 29 -19 -13 -27 -24 -32 16 25 23 -21 6 0
-26 -28 -32 -9 -25 0
-30 -29 -18 28 -21 0
25 27 -2 -10 33 0
-25 -27 -21 -22 0
-18 -5 25 -31 -2 -14 29 -22 -8 12 -15 0
-33 -25 22 0
26 -11 -28 6 0
-24 -20 -5 0
-27 -22 16 24 0
10 -9 14 2 25 -19 0
17 -14 -4 18 -32 8 -31 0
32 -9 -31 -27 0
28 25 23 -24 0
16 -24 26 -33 0
-13 -23 29 -25 8 -6 9 -24 3 -27 -21 0
-31 -19 22 20 0
-6 20 -16 0
-23 29 -4 0
-28 2 -4 -24 0
-32 18 8 -6 -5 -23 -17 0
-9 10 28 -32 0
-20 -11 -27 4 0
13 21 -23 16 0
-2 32 1 -25 0
22 18 -20 17 -29 0
5 -30 29 0
32 -4 20 0
31 26 28 15 0
21 22 12 1 -30 0
-33 -24 2 6 20 0
-24 -23 -4 -26 32 0
15 10 -5 0
22 -16 -9 0
-32 3 17 33 7 0
-28 22 -32 8 0
7 8 23 -30 20 26 0
20 27 0
-9 6 -28 0
3 12 -8 28 0
-23 15 -31 13 26 0
-22 -31 27 -25 -3 0
16 -8 14 -15 0
26 -21 24 28 0
-6 -31 28 0
-29 -10 -33 0
-7 -27 -24 32 -13 -31 -3 0
-24 -32 25 -15 0
-33 2 22 -26 23 0
27 8 15 0
-22 13 10 0
30 26 27 0
-13 -32 28 0
32 10 -3 -8 0
22 -12 -33 -26 9 0
7 -18 32 0
-33 -16 -12 -21 -30 0
-14 18 -27 0
20 -4 28 -32 -23 0
-15 31 12 1 0
31 -14 -9 -26 -35 -20 0
-29 14 23 0
17 -39 32 -19 -23 -29 35 0
-7 -38 40 28 -42 -17 0
43 2 -22 -41 1 0
24 -22 42 10 0
-30 36 38 22 -37 41 34 39 -24 33 0
-34 -36 29 0
-18 -43 -40 37 -21 0
-14 -35 -36 -23 16 -26 0
42 -17 10 0
8 -25 4 0
-32 -40 -25 -43 -42 -37 -27 0
-37 -31 -15 0
-40 35 -17 -29 0
-13 37 29 -26 -18 31 0
25 41 -16 0
6 -41 35 0
-37 43 -33 -36 0
-38 -32 -23 0
-31 17 -40 0
-18 -16 -34 30 0
38 35 -19 30 -41 -15 -31 0
-34 12 36 0
34 -21 -14 0
25 19 42 0
31 -20 -27 -38 -39 0
28 -8 4 0
32 26 -41 30 -4 0
14 -43 41 0
38 -39 -4 -23 42 -41 37 -40 -2 -30 5 36 0
30 33 24 -43 0
-41 -34 -39 0
7 -40 42 -13 -34 23 -20 0
-6 -33 43 0
31 -25 43 0
-31 41 35 -38 0
-30 -38 -26 0
-34 26 -37 24 0
38 -35 -42 43 -17 0
-11 39 -30 0
-38 -39 42 28 0
-6 -38 -23 -43 0
-38 40 11 32 0
-34 -26 7 -2 -23 -43 -40 -39 0
42 34 -36 -6 -13 -40 -19 29 0
-30 -40 39 41 0
35 23 34 0
23 4 -43 10 31 29 0
42 39 43 0
20 42 43 18 3 0
41 43 -9 -36 0
32 43 40 -5 0
-38 41 -42 0
-37 -39 33 0
24 -27 42 0
-37 30 -26 -34 43 -28 29 -35 -36 12 -42 -7 0
-20 41 -13 -39 28 40 0
36 43 -34 6 -40 0
-32 13 29 0
4 -14 -41 0
-26 -29 20 37 -30 38 -36 0
-3 35 7 0
43 -42 39 0
42 -41 -36 0
35 -33 34 -37 36 -38 0
-38 43 21 -36 -39 -35 0
-33 34 -23 0
6 -27 42 0
-24 -10 30 -27 0
24 -3 -33 0
29 43 -39 33 14 -35 0
36 -41 34 20 -24 -30 40 -43 0
-35 -3 -14 13 0
-32 38 -7 37 0
-34 42 -33 -28 27 0
-15 34 2 0
4 36 -29 35 0
-23 -3 -34 39 0
11 40 6 -35 -39 22 0
-43 -23 -37 -20 0
-37 12 23 0
11 -26 -43 36 -39 -31 0
-38 41 -28 0
-41 22 -36 -31 20 0
-19 20 43 42 -36 -30 35 15 0
41 22 -36 6 42 -40 0
29 -35 36 0
-12 -10 4 -17 1 28 0
40 39 36 29 5 0
