p cnf 13 47
c t pwmc
-6 7 12 2 -10 0
5 6 -1 -12 4 0
-5 10 -2 1 13 -11 0
-9 -3 -8 0
-13 -4 11 -7 3 8 9 -5 0
5 -10 0
8 3 -4 -6 0
-13 1 3 -6 -4 0
12 -3 -13 9 7 8 0
-1 -11 3 -13 7 0
13 -9 12 8 10 -4 0
-6 7 10 0
-13 6 7 -2 4 0
10 13 4 1 0
-9 -13 -8 0
10 -2 0
-9 -3 12 11 0
-12 13 -5 6 0
-11 -7 -2 0
10 1 -13 -7 4 0
2 10 -7 0
-10 -4 -5 -8 -12 -3 0
-7 -12 -11 0
8 13 7 12 -5 0
-13 11 6 7 -1 0
2 4 1 10 0
-6 12 -5 1 0
-1 9 6 0
-4 9 12 1 0
-10 -12 -8 3 0
10 -9 4 -5 12 0
13 2 1 3 0
-12 -7 -13 0
-11 -8 -13 3 0
5 11 -12 -7 -13 -1 -9 0
13 -2 3 9 -12 0
-7 -6 10 -12 1 -4 9 13 -11 8 0
-10 -4 -9 0
-9 6 -1 -5 -7 0
-10 -1 8 0
-13 -12 -2 1 0
-8 11 1 -10 0
-9 -1 10 -2 -11 4 3 -12 5 -6 13 0
-9 -4 -7 -3 0
7 -3 1 5 2 0
-11 -12 3 0
2 8 -3 10 -4 -7 0
c p show 0
