c seed 251576
c max width 22
c layers 4
c layer[0] = [1..21] w=21 v=21 c=94 r=4.48
c layer[1] = [22..38] w=17 v=38 c=153 r=4.03
c layer[2] = [39..60] w=22 v=39 c=143 r=3.67
c layer[3] = [61..78] w=18 v=40 c=174 r=4.35
p cnf 78 564
3 16 -11 8 18 -12 -14 1 7 -13 6 15 0
14 -9 -10 0
-5 13 -20 0
-8 -15 -7 21 2 0
4 20 -6 11 0
5 -19 17 0
9 19 -3 0
12 -16 10 0
-4 -21 -18 -17 0
-1 -2 14 4 -21 -3 11 12 0
9 6 7 0
-3 -4 1 2 0
4 -12 21 0
-14 -9 11 13 0
7 17 20 3 0
-1 5 0
-14 -16 1 0
3 -6 -7 0
-6 -9 15 10 2 -21 0
8 9 -21 0
10 -3 6 14 -18 -2 -1 0
1 11 0
19 14 -8 -13 -1 3 -2 -20 0
12 14 -6 0
-19 2 12 -20 0
-6 11 8 0
13 -10 18 8 0
7 13 -12 3 18 6 0
-19 -20 -9 0
12 20 7 -19 -15 -2 18 0
3 20 18 -8 4 0
16 -4 -2 10 11 -7 -14 20 0
-1 -18 19 12 0
1 -16 -4 -6 0
15 -10 3 5 0
13 -21 -17 -3 0
-5 7 18 0
-16 -13 -14 -8 10 -15 0
-3 4 6 -10 -11 -1 0
-7 18 19 -14 0
-20 1 -12 16 -17 -6 15 19 4 0
14 -12 -17 7 -11 -5 -1 -13 0
3 16 -12 0
-16 -18 -1 20 21 0
-11 -2 17 0
-5 8 11 15 10 -13 2 19 4 -1 3 14 0
-21 5 -16 -6 -2 -19 0
-2 20 -21 0
-11 2 20 -7 -19 -13 -3 -4 0
-10 12 20 8 1 -21 0
12 -11 -6 -9 0
-10 4 -2 0
-20 19 -6 14 0
17 -5 1 -11 -6 -7 0
-19 15 -1 12 18 -21 0
-15 -8 -5 0
14 17 9 -19 12 0
-12 6 -18 0
-14 -9 4 18 -16 2 -20 12 0
1 -16 5 0
6 19 10 7 0
-2 4 -10 3 14 -17 0
6 -5 -12 10 -17 -11 2 -1 -3 0
13 11 -16 -6 20 -17 1 12 -5 0
1 -3 16 -2 0
-18 -17 9 -3 5 8 -2 0
16 -15 6 0
-15 -13 1 0
17 9 -11 -19 1 15 0
-9 -18 -8 0
10 -2 -8 -16 0
-20 -18 -8 0
-2 18 14 -5 8 0
-15 -18 -16 9 0
4 -18 16 -9 0
20 9 10 7 18 0
-8 -4 -6 0
5 11 -9 0
1 -12 2 13 0
-19 -8 -3 21 -1 -9 14 0
-8 5 14 -11 0
-20 -17 -14 4 15 0
-20 -17 -21 0
16 -13 18 0
-10 -6 -9 21 0
-13 -20 11 0
-10 -11 -20 0
6 10 -7 15 -21 13 0
12 -17 18 -13 -14 9 -16 0
-10 16 -3 -12 21 -14 -1 11 0
-3 14 11 0
7 -20 -4 18 10 1 0
18 4 6 -9 -16 -15 21 0
4 12 -21 -16 -8 -11 20 13 0
36 -4 -7 0
-22 26 4 -10 -34 -17 0
18 -36 30 28 -21 27 0
-1 11 -2 38 0
12 -35 5 -4 13 17 34 0
8 19 -21 -27 16 13 24 29 0
-7 -21 -26 0
-14 -37 -33 -11 8 4 0
10 -21 17 0
9 -8 -28 0
23 -24 32 0
37 33 -32 0
11 5 12 10 0
-17 25 -7 5 4 0
-17 11 15 -25 2 -13 0
-16 -17 19 3 -30 35 0
-10 -9 21 -4 0
-13 31 -29 0
-2 -31 -7 -17 19 -13 22 1 -38 0
-23 26 24 0
-31 6 11 18 9 5 0
-4 -12 14 0
37 35 6 0
38 23 0
8 19 -14 11 4 6 -28 0
31 -28 -10 0
-30 7 6 23 5 37 2 -35 0
-27 28 33 -6 14 0
16 -19 26 10 -4 -5 2 -6 37 -20 0
12 6 22 0
-11 -1 32 23 5 -15 -30 22 28 0
-13 -32 -33 -34 20 28 0
25 -30 -23 0
-16 3 -38 -5 0
27 24 29 0
-13 33 11 0
11 16 -25 -31 -21 0
-17 -34 -35 -12 -36 38 31 -1 3 -7 -5 0
-37 26 0
-20 18 -21 29 7 -1 37 0
18 13 3 0
-28 -6 29 -38 0
37 -12 -29 0
26 -17 32 -9 0
14 31 -21 0
5 -19 34 0
-31 19 11 3 2 0
2 30 -19 35 0
-12 -21 2 4 37 -1 -16 0
12 -13 4 28 -33 0
-31 32 17 -2 38 -7 13 28 -20 0
-29 -8 19 27 -24 -16 34 0
-38 11 -5 30 -17 0
8 -30 29 -32 -33 0
29 19 25 5 -6 15 -31 0
-3 38 18 19 1 0
10 -37 -35 0
-38 32 -19 -26 -25 0
29 -21 -3 -11 -36 -2 0
35 -4 33 0
28 31 -33 -8 0
-36 30 9 7 -14 19 4 20 10 26 0
38 23 26 27 37 -25 -9 0
38 7 -34 -9 18 -23 11 30 19 -29 -1 0
5 -25 22 1 12 0
27 -26 -10 32 34 8 -30 -35 0
-35 4 22 0
-31 -17 26 -4 -25 12 -13 -16 -10 0
-17 38 -33 0
25 18 21 -17 0
-31 6 -33 -1 0
-15 11 36 -27 -21 4 0
-9 3 20 0
-12 -36 5 19 0
-22 -31 6 0
-31 -29 18 0
-29 -22 9 35 0
17 20 -11 0
-13 34 -18 14 -4 -26 -15 -33 6 -5 0
24 17 11 0
-4 -22 -27 1 0
-4 31 21 0
-22 15 -31 21 38 25 -27 0
-1 16 22 0
-36 -16 4 38 -31 14 0
3 35 -28 33 34 14 0
6 -36 2 30 0
23 14 32 0
-26 6 11 4 5 0
-15 -30 0
-16 3 -26 0
-11 -13 -17 31 12 0
-8 -30 25 -12 34 0
12 -26 -10 28 -13 -14 0
-16 -23 -7 -31 10 0
-17 -24 26 2 0
33 26 -22 -38 0
31 -13 -19 29 0
14 -15 21 26 0
-27 31 -30 16 35 0
29 4 38 0
-11 16 30 0
22 -23 -6 0
25 20 3 -31 28 0
-13 34 24 -20 0
-17 -13 33 0
32 16 38 0
20 27 -37 -26 0
36 -24 -20 -17 -38 0
-20 23 22 26 0
17 36 30 0
-37 -5 38 -33 -32 27 0
23 24 34 -18 0
20 32 -13 -15 -33 0
-5 -10 32 29 18 3 -24 0
-31 6 -9 18 0
33 13 -3 0
-22 33 -7 0
28 -27 36 -20 -11 0
-38 30 17 0
-35 -25 23 0
-33 12 -31 0
-7 -30 22 -13 38 0
-29 -28 35 18 0
-15 18 32 0
35 -9 5 0
-11 -5 20 23 0
-5 -20 29 -19 33 22 0
-14 37 28 -5 -36 -33 15 -9 -23 6 29 13 20 -38 0
23 38 17 -7 -16 0
-11 -22 29 -32 -10 0
-30 29 24 14 0
-6 -25 27 0
12 22 32 27 -24 4 -38 0
2 7 26 0
30 14 -37 34 -16 -35 -13 7 0
19 -30 -20 0
-36 27 -37 -16 0
-26 22 -16 -21 -27 8 3 13 -31 0
-12 27 -22 -3 -5 -29 -19 -36 0
29 36 -14 0
28 -6 17 29 25 0
35 -37 -19 -5 0
-5 8 -32 0
17 7 28 -16 -13 22 -15 -12 -14 -18 0
3 7 -1 -12 -23 13 0
18 14 15 0
-1 -9 -24 4 -5 -13 -7 -11 16 28 0
-17 5 -29 0
-29 -5 28 0
19 -34 35 0
-37 4 20 0
-12 -32 28 29 0
1 16 19 -47 -36 0
-36 -25 9 17 -51 0
-52 -44 38 0
29 -43 41 0
13 -20 -27 -19 0
-19 -49 -37 50 55 42 18 -45 0
48 56 15 0
4 -53 60 15 57 0
43 -59 -39 0
-33 -48 40 -27 47 24 0
-20 54 -38 0
-56 51 -4 30 0
-46 15 -41 49 53 0
-30 17 -54 0
23 -40 -55 59 26 -28 7 52 0
18 58 39 -26 0
-60 13 -50 17 0
44 -5 45 0
-57 13 -58 -42 46 0
6 -20 -52 0
27 22 -51 0
-42 49 0
56 6 11 -44 31 0
-3 -43 -30 0
31 40 -5 -55 0
-59 -41 -36 0
38 -4 -22 7 56 59 0
-26 5 21 0
-26 -1 -5 38 0
-36 46 37 48 -52 0
-14 -52 15 41 0
30 -17 -48 -11 0
-9 -48 59 -45 0
56 -43 27 -7 0
-51 9 -44 23 -58 0
19 -17 27 12 56 -59 -5 -54 58 0
25 44 -51 34 0
34 6 -36 46 0
39 32 41 0
-34 -54 -58 50 0
-51 41 -55 -26 5 -11 57 0
56 -49 8 0
-52 38 44 0
30 54 -47 44 0
9 -51 34 0
-24 -16 4 0
29 -36 42 -58 0
-56 -22 -55 18 43 45 0
45 38 48 0
33 39 -20 12 11 -58 46 28 -34 0
-35 52 60 -33 44 32 0
31 -58 -47 0
-26 -48 -5 -32 23 0
41 10 6 -26 12 0
-57 30 -44 23 0
41 -55 10 -21 -35 0
4 32 -55 -46 0
50 5 44 0
50 -14 -2 46 4 -45 0
-50 33 -22 0
-25 -51 58 0
41 11 8 40 0
-13 47 59 -34 0
52 23 -59 32 0
48 43 55 0
-59 -27 -46 57 -12 -58 -52 30 28 5 0
55 28 23 -27 0
-58 -48 -28 33 0
3 37 -15 0
-26 38 15 0
-45 5 -19 0
-47 -49 -31 42 58 0
-55 -39 18 47 13 -41 50 6 -60 0
29 52 -54 0
-48 -44 -46 0
-27 -15 26 -42 -32 0
-34 -52 -13 -23 2 -50 -15 0
56 -43 27 -3 13 -24 59 -20 -18 46 19 -22 58 0
-25 -54 -47 -14 0
-41 -51 52 0
14 -49 37 51 -55 60 0
-31 -1 -10 -40 0
31 9 55 40 0
-29 -41 -32 28 0
-48 -42 8 47 -58 -55 49 0
-43 -50 -12 0
58 52 36 -47 0
55 10 -47 0
-58 -16 -41 0
-43 -60 -47 -45 0
58 -30 -16 -52 0
51 -59 -26 0
-34 51 -13 0
56 -58 -52 -44 38 0
-52 54 -42 0
-20 3 -16 0
-48 21 4 24 44 25 7 29 -43 0
18 -20 -40 6 0
44 52 -30 47 0
-7 -56 -25 0
-5 35 16 0
-3 43 -26 40 0
35 -32 -56 -43 0
-57 47 -18 13 -60 -53 0
-46 40 -24 14 0
19 -33 -27 42 -41 0
-47 55 -50 60 -32 0
48 1 39 0
37 -44 -52 0
13 -58 0
-55 -11 -7 0
28 -56 39 -36 47 -51 -21 7 0
60 -41 -6 0
49 7 32 0
-15 -45 46 60 25 52 0
52 -43 19 54 0
27 36 -22 0
-35 -46 39 59 0
22 32 8 57 0
11 19 -37 52 42 0
48 -47 53 31 -43 0
-21 52 -56 0
57 -24 -43 0
19 50 54 -41 42 0
60 -42 -30 -28 40 38 -15 -59 46 19 56 7 0
-57 51 33 0
-1 29 60 59 -2 5 0
3 -12 60 0
43 -14 15 -53 0
-58 52 -53 -56 0
45 4 -24 0
-8 40 -43 -55 0
53 13 -5 9 -34 0
-39 27 47 0
59 57 35 0
47 -42 -19 0
-37 52 20 0
-58 -45 24 0
-39 -44 -2 35 -21 -56 0
54 -48 -42 0
-48 47 -39 10 22 0
-40 41 52 0
-8 -59 47 0
-73 -75 -72 0
-36 -63 -68 -64 0
-74 -61 43 -48 67 66 0
-38 -66 -14 0
-76 41 -42 72 65 -62 0
59 -16 70 -7 -39 63 38 0
60 78 73 48 62 0
-6 -39 55 0
-67 -57 -69 77 0
59 -47 71 -70 -77 69 -78 0
23 -65 75 0
68 49 -42 -71 64 0
-47 3 -20 37 74 -28 0
61 76 67 0
68 -76 -74 75 45 0
-43 47 -76 32 22 75 0
22 40 -66 0
-55 65 -63 0
78 72 -27 0
15 76 23 -62 70 -51 67 52 -58 74 42 8 60 63 -43 0
-67 48 55 -19 77 37 52 -10 0
11 -31 20 73 -68 0
56 59 62 19 44 0
50 -48 -33 3 57 -73 0
-67 53 -50 43 -34 0
49 38 65 73 -77 0
11 78 -56 0
-46 -69 0
-61 2 -10 -43 0
-69 -55 -73 60 66 0
-64 76 -75 10 -57 0
-36 71 -76 0
-43 -9 56 0
46 -64 45 -77 0
-6 -43 -29 0
78 48 -67 0
59 -67 -46 -2 72 -71 0
7 -66 -64 0
-6 25 -74 0
-46 -63 -57 1 -76 -78 0
-14 75 -74 0
-76 -25 -18 78 56 0
-72 20 27 -14 0
75 -18 -57 46 0
35 -57 45 0
-4 59 -64 -25 -75 -1 14 52 -74 0
75 28 -63 5 41 52 0
-78 65 62 0
-52 -65 77 27 34 -67 -1 -7 0
69 71 67 70 -48 0
74 -66 -60 76 0
30 -70 35 0
-68 32 -75 0
-67 62 -29 0
-68 -65 -52 64 0
40 62 -41 -53 74 42 0
34 -61 -70 0
-65 -54 60 15 47 -10 -70 0
-61 15 42 -71 0
-41 26 66 0
49 -77 -65 0
75 -29 66 0
71 -61 62 -2 -73 -53 65 -77 0
61 -41 67 0
-66 -69 -76 0
-64 66 8 0
-61 -65 76 -42 -1 0
-74 62 39 69 0
73 -23 54 0
-21 -67 -16 -57 -78 0
47 43 57 0
70 -75 72 22 63 64 68 0
-43 -63 40 0
-77 -59 74 -71 0
-67 -2 58 63 76 -44 0
70 27 46 0
20 65 27 35 75 70 -73 60 0
-42 77 61 -68 43 0
-64 -32 72 -69 0
18 -29 -40 49 72 -62 -31 28 -53 73 74 0
74 -39 48 33 0
6 -39 8 -67 73 -71 -78 -46 0
55 5 19 0
54 -33 -23 77 0
34 63 65 0
47 5 -76 -44 66 48 0
-1 -71 -76 0
49 46 -45 -29 -43 64 4 0
20 67 75 -65 0
65 -15 -33 0
67 70 0
48 -36 -68 0
13 44 63 15 57 0
-39 -64 28 0
57 -60 -78 72 0
-77 17 62 -75 46 33 0
-50 -70 66 0
-61 66 54 -21 64 77 -78 -58 -67 68 -24 60 0
63 -78 -11 69 -31 75 0
-71 51 -76 -77 -73 -55 59 67 66 -65 -16 0
51 58 -31 61 0
-69 -50 -31 75 -26 0
76 -64 73 36 0
65 59 -64 76 -18 74 0
65 8 45 0
61 -62 25 0
54 3 42 36 0
70 48 44 -65 0
62 29 -74 -20 0
-70 58 0
-55 25 48 45 0
63 27 -50 52 -45 69 0
70 -69 -73 0
-56 59 -63 53 -62 0
32 15 76 0
-61 -63 -65 78 -10 -66 0
-11 -61 -3 0
75 69 -11 0
55 -65 -41 -34 0
-24 -61 -70 0
56 -46 -69 28 72 -73 65 -71 0
6 -12 57 18 69 0
-77 53 73 63 0
-57 40 -72 0
-30 -75 -76 63 72 -29 0
-50 31 27 -19 0
71 6 65 0
-67 -61 73 6 0
60 -72 -64 -47 0
-73 68 42 53 0
73 -52 -63 44 69 0
39 -6 -23 64 32 42 0
-61 -16 -64 0
-35 -69 -74 62 -57 0
-21 76 10 -67 0
-50 2 12 44 0
6 61 62 0
56 44 10 0
-25 62 57 -15 32 28 0
69 -13 77 0
-69 19 56 0
53 -17 56 66 -70 -64 -71 -10 -21 -25 0
-64 -12 -62 -75 52 0
-40 -60 4 48 -77 -74 57 0
-61 -75 67 6 63 -68 72 54 51 -29 0
-7 64 -48 -55 -61 -20 9 67 0
-51 72 10 -76 0
61 30 -74 63 0
38 67 -69 -72 0
50 63 -70 0
-15 68 57 0
70 -38 28 0
-40 -72 -39 0
-69 70 -18 -61 -76 19 -64 0
-57 -68 42 0
57 9 -67 -34 0
78 49 -67 0
48 58 61 -78 30 0
-77 -71 78 0
62 58 15 30 13 76 -78 0
36 -69 0
-44 -57 -13 0
67 -62 -61 71 23 32 -66 25 0
-78 -13 29 73 0
63 66 -65 -35 0
-52 22 -62 0
-51 33 -59 -15 -75 0
-77 59 -58 0
-69 67 -1 -70 78 -65 0
77 -27 74 -18 0
69 -66 -6 51 0
58 53 -75 22 0
71 73 70 0
74 56 -68 0
