c seed 504319
c max width 18
c layers 3
c layer[0] = [1..14] w=14 v=14 c=46 r=3.29
c layer[1] = [15..27] w=13 v=27 c=91 r=3.37
c layer[2] = [28..41] w=14 v=27 c=106 r=3.93
p cnf 41 243
10 -6 2 5 9 -4 8 0
-14 4 -7 1 -3 6 -10 -8 0
13 11 -9 -1 -5 0
14 12 3 -11 7 0
-2 -12 -13 0
-10 3 1 -6 12 0
-8 -12 -11 0
12 -2 3 11 -6 0
-14 -3 2 7 0
12 -5 -14 -4 1 0
11 7 0
-8 -2 9 0
6 -9 7 14 -2 10 0
-9 -3 -13 0
-7 -6 2 3 -10 14 -13 8 0
1 3 -9 14 0
-12 5 6 -2 -10 0
-2 14 9 10 4 -13 0
4 7 13 0
-3 -2 4 -13 5 0
6 -13 10 11 0
7 4 3 -10 5 8 2 -12 6 0
-1 -6 -7 12 0
9 -6 -10 8 11 13 2 3 -7 5 0
-5 -11 -9 3 0
12 -10 14 7 -9 -4 -8 0
-14 -11 -5 0
-13 -6 -8 1 0
-2 12 14 6 -10 8 -9 -7 4 13 0
8 14 -13 11 -6 0
-11 -9 -10 -5 0
2 3 6 0
14 6 5 0
-13 10 8 0
-3 12 -4 -1 6 10 0
-10 -8 6 0
-7 -4 -5 1 -3 9 0
-10 -11 -12 0
-3 13 5 -7 -1 -10 11 2 0
7 -12 10 0
14 10 3 -7 9 12 8 13 -5 0
12 7 0
-14 3 8 12 6 -10 0
-3 -12 13 0
13 -5 11 6 0
-3 1 7 -4 8 0
18 1 13 0
21 24 -1 20 27 -3 0
10 -13 -17 5 -14 -19 23 0
22 -15 -4 -8 -27 0
8 -6 -22 -20 -3 0
12 17 -21 -3 0
10 -5 -25 -9 11 -6 26 0
13 16 -24 -14 -23 -18 0
-26 -10 25 19 0
-12 7 2 1 15 -16 0
7 8 5 -26 -16 18 10 0
24 -2 -22 -20 12 0
-12 27 10 -4 25 -16 0
-22 -18 -2 0
-14 7 -27 6 -18 0
4 -23 26 -14 11 3 0
7 4 23 22 0
-7 -1 -20 -11 21 -14 -6 -3 0
-10 22 26 15 -9 -5 -6 -2 0
2 -15 10 0
2 -16 -19 0
-14 -19 9 -18 5 0
26 -3 -2 16 0
-3 -22 4 0
-18 -26 15 0
-27 17 10 0
17 -12 2 0
2 22 -23 0
23 11 -6 -5 0
12 9 26 1 16 0
15 -10 22 -26 -14 20 0
-14 18 -20 0
-2 -15 5 24 -4 3 -19 12 0
16 -20 5 -25 0
25 1 16 7 14 -9 27 0
-4 -17 -8 22 5 0
-22 -18 -5 -6 16 -2 0
16 23 -22 0
23 -22 1 -18 16 -21 6 -15 3 -14 0
24 -1 7 0
4 -3 12 7 13 -9 14 -15 -27 -20 0
-17 -19 -21 0
-17 14 -22 3 -21 11 -19 18 0
-26 4 27 -13 0
-19 22 -14 -17 26 6 20 15 -13 0
-10 -15 -3 0
21 -24 22 0
4 -19 -16 0
18 -1 23 20 -12 6 13 14 0
-13 19 15 -24 -4 -5 -26 0
-8 -24 0
-27 -13 15 -4 0
10 20 -4 0
-1 21 14 0
3 27 -9 0
14 -13 -27 2 20 0
4 26 21 -19 -8 0
6 -25 21 -18 0
13 -10 11 0
4 25 -3 22 0
20 -12 -11 0
15 11 5 -7 -4 0
-20 -1 2 27 0
-2 -6 -22 0
16 5 2 15 0
-5 17 -19 0
-26 3 -24 0
9 8 -26 19 -3 0
-4 -1 -8 -21 22 0
17 14 27 0
-3 -21 -8 0
-12 -3 14 0
8 1 26 -24 0
-15 10 -27 0
-21 -6 -4 -5 9 0
25 -26 20 -17 -5 0
-20 -1 14 0
25 -19 5 0
-27 -23 -20 -11 0
-25 24 6 -8 17 4 -3 0
-18 8 26 0
27 -20 17 5 0
-13 -6 2 25 23 -11 -10 18 3 -1 0
-4 8 -22 6 0
-23 -27 -25 -7 10 -21 -14 0
3 10 -2 18 0
10 -14 -9 27 0
5 15 18 -24 -8 -25 -21 0
26 22 -15 -14 -1 21 0
-17 -3 23 9 -22 21 25 12 -16 0
-23 8 -10 0
33 -37 -11 0
-33 8 29 41 13 0
-14 39 -34 0
28 27 20 -9 0
38 -40 -35 -13 32 -1 0
-38 5 6 35 0
34 17 36 22 21 0
-30 -32 11 0
-8 14 30 0
-36 31 -28 22 12 0
40 -4 -31 0
13 -10 -29 37 -41 -39 0
-25 23 13 5 24 -33 0
-17 35 -22 4 0
10 -9 35 -16 31 -33 0
23 8 -41 0
16 -13 -22 0
-41 -4 -27 34 0
34 4 23 0
-24 3 -11 0
28 36 -20 23 39 41 1 -30 0
-31 39 -33 16 -38 0
10 26 -15 0
-38 15 -37 0
-29 -39 -1 38 -35 16 -21 36 -15 0
25 35 -32 15 33 -36 0
-1 39 31 0
26 33 -13 0
13 -1 -20 0
26 17 28 7 0
-8 40 -3 -33 34 1 13 0
-5 41 25 -31 0
18 29 35 0
36 39 -29 0
-39 2 30 0
36 -16 -35 39 0
-20 19 -7 11 -18 0
33 18 -8 37 -40 0
9 -1 13 0
35 -22 31 3 0
-40 32 -33 27 0
-28 -18 0
-31 -25 9 -36 29 -28 -35 19 40 0
32 -37 27 -25 18 33 19 0
30 21 38 0
-6 -16 2 33 40 30 -41 0
36 27 31 0
25 -3 -22 -8 0
-41 -31 3 7 1 15 0
-15 38 19 0
-32 -30 1 31 -40 -18 0
33 -39 0
-38 -23 -32 -24 0
-40 38 -33 30 23 0
-39 -20 26 -32 0
28 -39 -4 0
-7 31 -37 -32 38 0
15 10 41 -37 39 -5 -29 -36 0
-1 40 -4 -9 33 0
-31 -12 40 15 0
30 41 -6 -37 -3 0
27 -5 -4 0
-19 33 -12 39 0
-32 20 18 0
-23 -29 28 0
-1 26 37 13 -21 -11 -17 16 0
-25 31 39 -12 0
-24 40 -39 21 6 28 0
38 33 -8 -24 -17 -34 5 0
-37 -38 10 -19 -18 35 0
26 -40 39 34 0
-7 -24 -34 28 -27 -37 17 22 0
37 -10 25 38 0
-32 37 29 -35 36 0
19 -39 7 -30 -27 -32 5 0
-29 40 23 34 0
34 39 6 0
30 33 -21 -31 -12 -35 -39 34 -15 0
19 -12 -37 0
37 -13 -35 36 0
-10 -21 -13 -38 -1 0
37 26 30 0
29 -30 -37 0
-32 -38 3 0
-34 25 6 0
-36 -29 5 -38 -41 0
28 -39 -30 -41 35 0
29 38 35 -40 -11 -34 0
30 -2 -40 0
-16 -31 20 33 0
28 39 -3 31 19 36 0
34 -3 1 -19 10 0
-29 -32 33 1 0
14 -21 38 -35 -3 -15 0
-29 25 -38 0
29 40 34 7 0
41 -5 -18 -23 0
12 15 -39 28 -2 0
-24 3 34 0
-39 10 -21 25 37 -38 -30 -36 11 0
-41 -34 32 0
-6 3 31 26 -32 30 39 0
41 13 -22 0
-14 -37 -16 30 0
-35 39 -4 -25 16 0
-3 33 -11 29 -35 0
