c seed 65301
c max width 26
c layers 4
c layer[0] = [1..10] w=10 v=10 c=39 r=3.90
c layer[1] = [11..22] w=12 v=22 c=97 r=4.41
c layer[2] = [23..32] w=10 v=22 c=93 r=4.23
c layer[3] = [33..52] w=20 v=30 c=133 r=4.43
p cnf 52 362
-8 10 9 0
6 -7 -9 -2 -1 8 -3 4 0
-5 1 -4 2 -6 -10 0
5 7 3 0
9 -3 -7 6 0
2 8 3 -1 -4 0
4 -8 -7 -5 -1 0
-5 10 -8 7 0
-1 -7 4 3 0
-2 9 0
-10 5 0
-6 -1 9 -10 0
3 -5 10 8 9 0
8 7 4 -3 0
9 2 5 6 7 0
8 4 -7 5 0
3 2 0
-8 -4 3 0
-1 8 -9 -2 0
7 -1 -5 -2 0
-5 9 10 3 0
6 10 -8 -3 0
5 -9 -2 0
-2 7 0
-5 -2 -9 1 0
3 -6 1 0
1 8 9 10 3 0
-7 4 -1 0
2 -5 -10 4 0
3 9 -1 0
4 -1 -8 5 0
1 -4 -6 7 0
-1 3 10 0
-3 2 -9 0
-1 -9 -2 0
7 -1 0
5 10 -9 -7 6 0
10 -1 -4 -3 6 -2 0
2 -4 -6 0
-3 -20 -1 -4 0
-13 -9 16 0
21 3 -11 22 17 12 0
-17 9 -4 -5 0
-5 9 -2 0
-21 -6 11 20 15 -2 14 13 19 4 8 -12 -18 0
-16 -2 -1 0
-15 1 -14 4 18 -22 0
-19 1 -18 0
-19 8 3 -9 0
9 -12 -7 6 15 21 5 0
18 6 -8 -5 -2 0
-9 -11 -10 0
12 5 15 0
-1 -15 8 0
-8 5 12 -3 -9 0
-21 -4 -15 -7 0
6 -16 14 22 -4 -2 -12 3 0
-13 2 -21 -3 0
20 -9 -10 3 0
9 -5 -7 13 0
-1 -20 -15 0
-11 -19 -8 -3 -6 -9 -15 0
-13 -20 -3 0
-7 -16 21 0
3 -19 -9 15 7 -18 -8 21 2 11 0
17 -1 -15 0
-6 11 16 -18 -21 0
7 17 8 4 14 0
6 17 9 19 20 16 21 0
22 -10 -3 14 0
20 13 0
11 13 17 15 0
-22 2 0
21 -13 -1 19 0
-6 -20 -11 1 0
-5 17 15 7 10 -19 0
11 -16 -17 -10 -20 14 0
-8 14 -3 0
-6 18 12 -11 -8 0
12 -19 8 0
9 -22 3 2 1 14 0
17 -5 8 0
-3 -10 -8 -5 0
-2 -22 -17 0
-6 -18 13 22 -10 0
-6 7 -21 22 0
16 -8 -18 -17 0
-16 -22 10 -4 7 3 0
3 -11 21 7 18 0
-9 -13 -21 6 0
2 -1 -20 -18 10 0
15 -1 8 -3 -5 -11 0
10 -8 14 -20 -21 22 16 -4 0
12 14 -7 -6 -9 0
-10 -8 13 0
12 -11 7 18 0
9 -1 -3 -12 16 -2 0
8 -12 -19 -16 -13 14 -5 0
-17 8 0
-11 9 -13 0
-4 9 2 12 -14 1 3 0
8 22 -20 0
-8 -9 -6 0
-9 -3 -10 -17 -19 5 21 0
-17 -7 -21 0
-19 6 -4 -9 0
-4 -12 0
-2 18 -10 -8 -11 21 0
7 -2 21 20 -13 -6 -3 0
-8 -6 7 -5 -21 0
7 19 6 -21 -20 -5 -3 0
17 12 -6 0
1 -14 -10 6 8 7 0
15 -16 14 22 7 0
-17 19 -1 13 0
-14 -1 -9 22 0
-3 -19 -6 -20 9 -2 -18 0
21 13 -9 -17 0
-22 -16 7 17 -15 -5 0
-13 -4 3 -18 0
-5 7 20 0
-10 2 14 -20 -16 0
-7 3 9 0
7 -20 21 -10 0
5 9 7 0
-2 -21 17 0
16 7 -3 -9 15 0
19 4 15 0
19 13 22 7 0
-9 -18 -22 -5 2 14 0
19 3 9 0
10 -8 19 0
10 5 4 8 22 2 13 0
6 -13 17 2 16 18 11 -15 0
-20 -3 4 0
12 -4 20 19 -9 16 11 0
12 23 -26 -27 6 -25 -2 0
25 -16 30 0
-20 27 2 0
-31 -13 19 -30 0
2 28 7 0
-9 -28 29 -32 21 0
32 31 -16 -24 26 2 0
24 13 -29 -23 11 0
-17 20 -30 28 0
6 -27 21 0
-14 27 -26 0
-23 1 -30 0
-2 -30 25 -4 -26 -7 23 24 13 -32 0
-27 -17 -29 4 28 0
21 17 -4 0
15 30 10 -27 0
12 9 18 1 24 -28 -27 8 -6 32 23 16 -4 -10 -26 11 0
-23 -9 -8 0
1 -31 22 0
-8 25 -27 0
23 -29 -4 0
-6 2 29 -11 -9 7 -27 -13 -18 21 0
25 23 -28 31 16 18 24 -4 0
-13 -8 -27 3 20 -28 29 0
-30 -14 18 0
17 28 30 -18 -7 0
27 -1 4 17 0
26 -3 31 -25 9 -32 28 6 0
2 24 6 -10 -17 -15 0
-7 -3 -20 0
-24 -22 13 11 0
-2 -20 27 11 0
2 -26 -31 29 25 0
-27 -28 -26 -25 0
11 20 13 -10 27 0
-22 21 6 -12 14 0
29 17 8 0
26 -28 -29 -18 15 -9 0
-26 -11 24 0
30 5 -1 28 -19 8 26 11 -27 9 4 3 0
-30 26 28 16 0
32 10 -19 -24 3 17 30 -26 0
-25 -16 -6 22 -14 -31 2 9 -32 -19 0
25 -9 -32 26 27 0
-25 -28 26 4 0
-8 24 5 0
20 -30 10 -28 -12 -22 0
-15 8 -27 -29 26 0
-31 28 -8 -11 0
27 24 -25 21 0
-11 -30 4 15 3 0
32 29 27 4 0
-24 4 -6 0
32 -13 14 -19 26 0
-24 25 18 4 -27 26 -10 -32 -21 9 17 -13 -15 22 0
-13 -32 -29 20 0
19 -21 28 0
-3 -18 24 0
-27 -26 -1 0
25 -5 11 8 24 23 14 22 17 0
-22 -12 -17 0
-1 27 -31 -8 0
-19 15 -27 2 3 11 0
-12 26 25 0
-9 -14 29 25 24 0
-1 -2 16 0
-10 25 -31 -32 14 3 -15 0
32 -22 23 -9 -12 -14 29 20 -8 17 0
29 -21 23 22 -24 0
-23 30 31 0
-3 32 -26 -25 0
27 15 -29 4 0
-26 3 15 -5 25 0
-22 23 -25 -16 0
-28 18 -25 0
-31 22 -9 32 -28 19 0
31 -4 16 -23 21 0
-29 4 -26 0
26 9 18 20 0
32 -23 7 -29 -20 -22 26 -8 0
-15 -22 -32 -24 13 0
3 -29 7 -26 -28 0
-1 23 -29 -27 -16 6 0
2 21 -32 24 -14 0
30 -12 -24 -10 0
-18 6 -29 0
21 -26 23 0
15 30 19 31 -12 -28 5 0
-25 -24 -18 19 0
23 18 -11 -15 0
-17 23 10 -9 0
28 -32 -29 -9 24 11 0
-8 32 -31 30 -5 29 -23 0
-26 29 28 0
50 27 24 -37 0
-40 -48 38 45 0
20 31 35 27 -42 0
-25 43 48 49 41 -38 0
42 -46 -44 30 -2 0
44 37 -33 -52 40 -28 47 0
51 46 -23 0
8 -41 -51 0
-50 -31 23 -45 0
-19 -34 -47 0
52 17 -31 0
-25 -43 34 33 0
13 -49 -36 -16 -21 39 24 23 -9 -35 0
11 16 -39 36 0
-31 -46 -24 -11 -14 0
-45 17 -23 46 0
31 10 -35 0
-28 17 50 -5 0
31 40 25 41 0
-2 34 -41 -51 -21 -9 0
-29 47 -34 -38 28 35 1 50 32 -6 51 14 0
-42 15 25 -40 -36 -17 0
51 -30 7 29 -39 0
-24 26 30 0
42 50 -52 -45 0
6 -50 5 0
-52 1 -40 0
-35 -36 -2 -50 0
-22 -52 -25 -46 0
-28 50 47 41 -51 -31 0
26 51 -37 -25 33 -17 -46 0
16 22 -11 9 -39 -45 52 0
16 28 -39 -47 -32 -41 -3 8 0
29 -28 33 38 0
46 -41 0
23 -11 29 28 -51 -27 -45 0
-36 25 46 -23 0
7 -17 10 -45 0
-27 -26 24 50 44 0
-3 4 -29 0
35 48 28 23 50 0
3 14 -30 -49 33 -47 -43 0
11 -37 -30 0
-35 30 50 32 0
11 -15 24 25 -44 0
30 -23 -35 39 -28 0
-42 -29 39 18 -27 26 0
-25 -32 -38 50 33 0
40 -38 -23 36 26 17 0
-52 -24 -51 29 31 50 0
-9 48 -16 -4 -32 -41 0
-25 -40 33 -46 0
2 -47 -34 0
34 -29 33 0
44 20 -39 -28 0
47 -37 -24 43 2 -52 6 42 32 51 -3 0
19 3 -33 -20 0
-25 -33 -34 0
23 39 33 0
-48 -29 36 -32 -34 -39 -11 0
26 -25 -47 -16 13 -52 -24 -29 0
40 -34 21 0
-43 1 -51 24 0
-25 27 46 -36 0
32 44 0
34 -48 -23 0
-6 -25 29 39 26 11 0
-43 -33 50 -30 0
-11 20 -40 -35 -24 -42 0
22 23 42 -35 0
42 23 -30 31 0
-27 36 41 0
36 -50 0
42 10 -41 35 -48 -1 24 -16 32 0
-34 12 -50 0
42 -35 51 -25 -10 -30 0
-51 -35 -6 0
23 -10 34 -39 29 -32 0
-26 -48 -47 -35 0
-35 -3 47 -39 31 0
51 3 -44 52 46 0
4 -18 15 -45 -10 -14 0
-48 50 -9 -28 14 0
20 -12 5 -24 -3 51 -42 0
24 -14 -44 43 0
24 -38 -40 -51 25 -2 43 46 48 -29 33 0
-40 26 49 0
-19 -48 -11 0
-14 35 50 45 0
-46 14 -49 -11 -28 18 -34 0
44 -2 -26 0
48 -8 -27 -23 0
51 -38 8 -44 0
36 13 42 0
-47 -34 -33 0
30 -43 3 0
-44 -25 -28 24 30 10 -29 0
-25 -34 8 0
-29 22 14 0
45 30 49 -21 -34 33 3 0
-4 17 -33 31 -3 -47 52 50 0
51 10 -4 0
-31 -15 44 -41 -43 39 0
41 -27 51 -45 0
50 32 45 -31 0
-7 -40 -25 29 -41 -34 0
49 15 -50 -21 -42 0
-50 -24 -34 -31 20 -33 -52 -44 0
-27 -38 -39 50 32 0
51 -38 -26 27 -34 0
41 -12 -30 39 32 36 24 -13 0
7 11 -41 42 -52 30 0
12 24 -48 0
18 36 42 -39 38 -40 23 -51 19 -27 46 0
-9 -5 -50 -38 17 -49 48 35 0
9 -23 -10 -30 0
-44 15 -47 -51 39 0
35 24 41 44 -31 48 34 0
-14 -35 25 0
3 48 39 41 19 34 -44 -27 0
-19 32 40 -42 23 -29 -10 0
-26 -47 -9 -28 0
15 -38 11 1 -2 -36 0
26 41 48 -25 23 0
12 -14 -32 0
28 -12 -24 18 -46 -43 0
5 3 -18 0
-34 10 25 52 28 -44 -4 31 -7 0
-13 -22 -30 0
-23 -30 34 0
48 -24 -8 49 39 46 0
27 -7 47 -41 0
