c seed 71018
c max width 15
c layers 1
c layer[0] = [1..14] w=14 v=14 c=44 r=3.14
p cnf 14 44
12 -11 10 0
-13 11 -10 -14 -2 -5 -8 3 0
14 4 7 -6 0
-9 -4 8 0
13 1 9 -12 -3 5 -7 0
6 -1 2 10 0
7 -3 -2 0
12 -7 0
11 10 14 0
12 -1 0
-1 8 6 3 0
10 7 0
-12 -13 -10 14 0
12 -5 2 0
-13 -12 8 0
-3 10 -4 0
-7 3 0
9 12 10 -5 2 0
12 -13 2 0
-12 5 3 0
-13 14 -8 2 0
-1 8 2 -7 12 0
-13 14 -10 0
8 -14 -13 -2 -12 -9 -7 1 -10 0
9 -6 -14 13 0
-8 -5 9 0
-8 -6 -5 0
-3 -9 -1 5 0
8 13 -9 0
10 -11 -3 -7 0
-14 8 12 7 0
5 -6 10 3 2 0
-1 -2 0
14 -11 6 0
1 2 5 -12 -4 9 10 0
14 -4 2 7 0
4 14 -3 0
14 -9 10 -6 0
-8 1 -6 0
-7 -5 0
-10 5 -7 -2 0
-14 5 -3 0
9 -8 -12 2 0
14 -12 0
