c t mc
p cnf 74 467
8 5 -13 -2 3 0
-11 -12 -4 0
10 11 1 -7 -9 0
-10 12 -1 4 -8 0
-3 6 0
-6 9 13 0
7 -5 2 4 -10 12 0
7 -5 -3 6 -2 0
4 6 -13 2 10 -9 -1 0
-10 8 2 9 0
-9 -6 -13 0
-5 11 13 12 1 10 -6 8 -7 0
-7 -1 -11 10 9 -8 0
13 5 3 0
10 -6 0
6 -10 -1 -4 0
9 11 -1 0
-7 9 -13 8 -5 0
-11 5 0
8 7 10 2 -12 0
5 4 -9 0
-11 1 -3 0
8 -13 -5 1 0
13 -11 -4 -8 5 0
-5 -6 0
8 13 -10 12 -2 -5 0
-5 10 -3 -2 -9 6 -4 -11 0
2 -8 -3 0
-7 -4 8 1 0
3 -7 5 0
2 -6 -13 -7 -5 -12 8 0
9 -6 0
-6 10 -2 7 -8 0
-13 9 2 0
9 -4 0
-4 3 -11 -12 -6 0
9 -5 -11 0
2 8 12 -3 13 0
4 -12 9 0
-9 7 1 8 11 -4 0
8 3 -9 0
2 11 -10 12 8 1 0
-1 -12 -2 7 9 0
-2 10 -7 -3 5 -13 9 0
-9 7 13 0
-1 -10 5 -9 -4 -8 0
-11 2 12 -9 -10 8 0
12 -9 -8 0
10 -1 7 4 0
13 1 -6 7 -2 -10 0
-11 12 -8 1 10 5 0
-2 -8 -12 -5 0
-11 8 7 4 13 0
5 -9 4 7 -6 -13 11 12 0
-7 -9 -20 21 0
-17 3 -11 0
-14 16 15 12 0
-1 18 10 -21 -8 -7 0
23 2 -10 -15 0
22 -18 0
2 -19 -23 0
19 2 3 0
-16 -22 10 0
2 -11 14 20 17 0
-14 -21 11 -1 -16 0
2 -21 14 -10 11 -19 0
3 2 11 -14 22 7 19 0
-3 -17 -15 21 10 -23 -19 -22 -13 1 0
-8 12 -17 0
-4 -15 17 0
-8 1 20 23 0
-10 3 -9 21 0
17 8 -15 0
5 -16 18 -4 0
4 -8 11 19 15 -3 -9 23 0
22 16 2 3 0
-3 -2 -12 -22 0
11 -10 15 0
-22 15 -23 -16 -3 11 21 -2 14 -7 0
-15 -18 19 11 0
-11 14 -4 -12 -20 2 21 0
-5 -16 -10 18 0
-20 -8 -11 9 23 -14 0
-19 21 5 0
4 3 19 0
22 -5 -6 17 -4 0
10 -5 -12 -15 -8 -23 2 18 0
-20 -19 23 -16 0
22 -3 7 0
-9 -16 18 0
-14 19 -15 0
16 -23 20 -6 21 -13 -12 7 2 0
18 -14 17 22 3 0
-19 18 23 -8 0
20 14 4 0
18 15 -6 13 3 19 -17 23 0
-12 -6 -22 -3 17 0
-8 -9 20 -19 0
4 16 -19 20 -13 -17 1 -9 10 -5 0
21 19 -5 9 -23 -15 -6 -2 4 10 -1 0
20 4 -11 0
-21 -2 -5 -23 20 -18 -14 0
18 -6 9 12 -16 15 -21 10 -17 23 22 20 0
-9 22 -17 -19 -4 0
-19 -23 18 0
-13 14 -23 -6 -2 -19 0
3 -4 9 -23 0
-10 5 -17 0
14 18 8 5 -22 -12 -20 13 0
20 13 19 -6 -16 2 11 5 0
17 -19 -2 21 -20 -1 0
11 9 18 -16 15 -1 -23 -20 0
-8 -21 -5 0
-10 7 19 -22 -2 0
-3 22 -18 -1 0
-19 23 22 0
-4 21 9 -11 23 0
-19 15 6 0
-17 3 1 13 -23 -22 0
4 20 -9 0
-19 20 18 0
14 8 -11 21 0
-14 11 -22 0
-12 16 -1 -19 20 2 0
-15 16 -12 11 22 0
23 -18 -22 -15 0
-2 5 11 10 -18 1 0
2 15 -17 -1 16 11 0
11 14 -17 0
44 5 42 14 33 15 -18 -22 17 0
-48 23 -33 -28 -42 0
-38 -31 -16 0
14 17 -6 -30 0
-15 -14 18 10 0
50 40 4 23 1 -8 -15 -20 -18 -6 -32 -45 -34 47 -36 39 0
-20 -6 -22 0
28 11 45 0
-29 25 -43 -23 0
32 -41 -20 -37 0
43 -5 -49 -11 -13 0
-22 30 2 46 -14 -7 35 0
22 34 -26 -40 0
-22 29 -2 41 0
37 38 27 -15 0
-24 -25 -19 0
-22 31 -4 0
26 -18 -20 48 -47 8 0
-46 36 -50 0
16 -35 -27 24 -13 0
49 3 0
-39 -5 15 0
-21 -44 -39 0
-43 39 6 18 -35 36 0
-42 22 -7 0
43 28 40 -10 -21 0
20 19 -40 -33 45 17 23 0
17 41 48 -13 0
-19 47 35 41 0
-3 -33 46 50 0
45 8 40 14 -44 0
-44 2 47 32 49 -36 45 -18 0
49 -40 46 -48 -32 35 -34 20 -26 -28 -37 0
-27 31 11 0
5 -16 38 -37 -47 28 18 0
33 -3 47 27 1 0
-23 -17 -40 0
38 -4 11 19 49 -22 0
-10 22 14 0
11 48 26 -36 16 0
-16 12 26 -32 -19 -29 49 0
6 -10 -15 -14 0
-48 -40 23 6 49 -13 34 12 -27 0
-12 21 -17 -11 -2 10 45 39 0
-21 -20 2 44 -30 0
-13 -20 22 -15 -24 -33 -3 0
44 47 -14 0
22 34 -9 17 0
-35 -48 37 28 24 34 0
-10 9 -13 0
-32 25 21 0
9 11 -21 0
38 37 -10 -13 0
28 22 25 0
6 -36 13 1 -24 0
-33 44 -50 -31 43 -40 0
-23 2 -40 47 -22 35 9 48 -20 -19 0
-42 -21 -49 4 28 8 -2 34 0
28 -12 -37 -33 0
12 28 2 -40 -10 0
20 6 23 0
8 41 -12 19 0
15 3 23 -5 -10 0
-18 9 -25 15 0
20 -44 -23 -42 -18 0
35 -2 6 0
-35 36 -17 -2 25 13 -47 0
21 -5 -47 0
7 9 20 13 0
28 -26 9 39 0
-16 -34 -27 0
44 -24 -1 40 0
18 -30 14 0
-50 -43 13 -37 12 0
31 23 -22 0
-13 -9 18 39 0
-46 44 -14 0
12 23 35 1 3 37 21 0
6 14 -40 0
22 39 28 0
-48 -23 22 2 0
35 -4 -49 36 0
47 35 27 23 44 -34 15 0
-3 -15 35 0
38 -42 28 0
-50 48 -2 -33 -10 0
-5 4 -41 0
-8 -13 3 50 44 41 -48 -16 -18 20 0
39 14 -12 -30 -27 0
-19 -42 4 0
-12 -23 17 0
26 16 23 40 -9 0
-12 -18 10 14 0
22 -4 -49 -3 -50 44 21 28 12 34 -16 35 38 -13 0
9 44 -3 17 0
23 -19 -26 0
31 34 15 10 0
34 13 -14 -7 -25 43 -39 35 0
21 14 41 22 -5 0
-4 19 -49 -27 0
50 14 -30 23 0
43 -23 48 -42 3 0
47 9 50 0
13 -9 25 -44 0
-12 -3 -15 11 -33 32 26 45 -1 6 0
22 20 -18 34 14 0
22 -48 -6 -21 40 0
17 23 32 0
-38 28 16 0
16 -26 -34 1 -48 -23 0
-43 24 34 -26 4 0
-32 33 12 28 0
36 32 -9 0
25 -17 22 13 35 -46 0
-29 14 30 1 -2 0
-13 -3 18 -17 -29 -10 0
19 -37 34 -47 28 0
-47 -14 44 4 0
-29 -25 0
-7 -19 14 32 41 25 15 -5 -37 0
-11 -15 -45 -7 -12 0
-17 27 19 8 30 2 -18 -39 -15 0
39 -22 44 0
49 41 1 -5 0
20 -19 50 5 0
-42 26 -30 -14 16 8 -48 19 -11 0
-23 36 1 46 0
32 21 -22 -6 0
14 46 -43 7 -20 38 -5 21 -16 18 -49 0
17 -46 7 -15 23 0
14 1 45 44 0
10 -27 -16 -28 0
12 7 -32 0
-40 -50 23 26 -15 0
21 -36 44 0
32 18 -7 0
2 -47 32 -5 44 6 -45 -20 0
-22 33 20 0
8 -5 34 0
33 44 -20 19 0
-48 -24 46 0
-31 43 5 48 0
-48 -13 -40 0
-41 -30 31 39 -20 44 -17 -1 16 23 36 5 48 0
17 -36 20 -23 29 45 -48 4 -28 0
31 -13 -46 -18 -32 39 0
34 -9 24 38 0
-21 35 0
21 34 16 0
47 -42 -44 0
-47 20 39 0
27 31 -20 0
38 12 -27 0
-49 -10 -35 -11 -13 23 0
4 73 61 -18 0
1 -62 -9 0
59 58 25 0
70 74 24 43 -73 -63 -40 67 8 0
-39 -50 53 65 0
-39 -45 11 0
1 66 -36 0
54 -46 -29 -43 0
-69 43 -57 0
-4 -10 -28 -7 -65 -67 0
39 72 60 57 0
-61 -37 68 -52 19 0
25 -36 -71 12 0
11 -51 -68 -74 0
62 -8 24 -55 35 0
-59 -60 45 -16 -54 64 0
-64 1 -13 46 37 0
-58 56 71 3 47 52 0
51 -48 -70 69 -53 0
-26 55 -72 0
63 -56 37 -5 0
25 -42 -23 -2 -66 0
57 -15 -38 0
-10 9 -8 -38 65 0
-26 74 66 24 -59 -44 46 -12 55 0
71 -68 0
44 -22 70 -58 17 0
-73 -12 -15 0
-16 -44 56 0
-34 10 -63 0
5 23 -25 -22 0
70 -33 39 0
13 1 72 0
-39 37 -13 -18 25 19 0
28 -16 -70 0
19 33 -60 -54 -35 53 0
-43 -15 13 0
41 26 -71 -69 -72 0
-61 -57 65 15 -54 28 8 46 -21 -71 0
59 21 58 0
39 -14 -30 0
31 -64 -59 22 -30 -34 0
-65 17 23 37 8 0
-10 71 37 0
68 -67 21 0
-48 -73 67 0
-6 -55 14 13 -62 -38 0
39 -58 -51 -68 -61 -23 -20 0
-68 41 -73 0
-72 66 43 0
13 -51 -28 -4 -48 0
-73 -23 -63 0
-54 -68 -52 -1 0
-49 66 72 0
30 -59 -46 -45 -41 0
-60 -2 65 56 1 71 -69 -47 32 73 0
73 23 -40 0
60 69 -19 -64 0
51 57 -35 36 64 0
-71 35 -57 58 -48 -74 -42 0
-38 -55 63 57 0
-54 -29 -32 -72 -66 0
52 66 54 -73 -23 61 0
61 39 -29 66 0
-27 72 -69 0
-68 -54 73 40 8 -37 -12 -60 0
-21 -71 -23 -56 -73 0
-58 -41 69 -65 0
-57 -45 6 28 0
66 -26 59 -8 40 0
73 -25 -64 -55 3 0
-65 -57 68 67 43 0
67 -26 -8 52 28 0
-65 10 3 -59 -20 0
-44 -64 7 5 0
11 28 -19 21 58 52 0
-66 -61 67 0
-56 51 74 -4 12 0
69 54 -65 -11 0
73 -72 37 22 0
-48 -20 19 0
64 -46 -63 52 -20 0
20 -70 -74 0
-32 65 62 74 0
-32 -36 58 40 -30 66 61 -26 -17 0
52 36 0
-44 -20 -43 -22 0
-59 -74 58 -36 52 -54 0
61 65 -49 -72 55 0
55 -33 25 65 39 -49 32 51 0
-14 65 -6 28 -35 0
-49 -16 55 0
-56 66 -59 0
-54 -71 -12 -6 0
-66 -54 -73 -9 -11 0
73 12 64 -50 0
29 -72 -51 39 0
-24 57 33 62 -56 -65 26 52 0
-62 -32 -72 -20 0
-48 -23 -19 -27 -31 45 0
-58 69 0
-48 -49 -3 -22 12 34 -66 0
-11 9 -56 18 -61 -21 -42 0
-67 -56 -68 0
67 64 61 9 0
-67 -17 -39 -24 0
-38 -20 51 0
-18 -52 38 0
31 -46 -65 0
-62 -54 66 0
-59 -16 43 52 0
-17 4 -61 65 0
18 -61 69 -67 12 0
20 69 38 19 -39 -70 0
-55 18 20 -62 -54 0
40 -25 62 -67 0
41 73 -58 0
45 73 65 0
-39 71 58 -67 -13 61 57 0
-67 -36 73 18 -9 0
-37 72 -67 0
-55 -62 59 -73 -21 1 50 0
-31 23 42 0
-50 48 63 -66 68 0
67 -23 -37 55 -57 71 25 0
26 -66 -58 0
12 -10 -53 18 -26 27 0
39 18 54 8 0
69 4 11 0
61 56 72 -55 -73 14 -24 64 -17 -45 0
67 -43 -64 -54 -7 0
-38 -5 -51 0
-42 -17 -47 0
-40 -69 -57 -72 0
70 -15 41 -26 52 51 -50 0
74 55 -46 -13 -49 -63 48 73 19 35 -54 -60 -17 39 0
-37 38 55 -39 -57 -66 29 0
-22 -60 -38 -62 -63 0
-36 18 45 17 0
-62 3 56 -36 0
67 -39 11 -72 36 13 -27 -56 -58 48 -63 43 -57 0
-63 13 -56 21 0
-64 46 59 -19 0
62 55 67 25 69 21 17 71 -51 0
-61 -69 74 -24 64 0
-52 -57 -27 -65 62 47 0
-64 65 -63 -41 62 0
-45 -21 28 0
67 43 -73 -74 -15 49 -3 58 -50 51 -56 0
58 55 -72 -30 0
-70 -15 20 58 -13 0
-26 70 -65 0
35 57 70 60 18 -1 0
-18 2 53 32 3 -4 -73 0
38 48 -56 16 -18 -42 0
73 -53 -14 64 0
-64 -21 59 0
8 -5 -10 56 0
64 22 49 -52 0
-1 -11 -57 0
56 31 -18 30 51 3 0
44 -12 56 69 -72 0
70 -64 -51 0
-52 73 70 -8 9 15 -23 63 0
57 54 49 0
-62 -64 -60 54 27 0
-72 -67 -61 58 0
-43 58 -3 0
-55 -27 48 18 -71 0
63 -68 -45 33 -50 -66 -67 0
-24 -1 -65 -4 0
-23 66 48 -74 0
-16 61 -74 0
52 -29 -63 3 0
-38 52 -64 69 0
61 -29 27 0
59 -54 47 9 39 26 73 0
66 -27 -21 -54 0
28 -67 -56 63 25 0
-66 38 56 51 26 -48 69 0
48 -51 -69 0
-3 -64 55 39 -60 47 0
60 51 -36 5 28 -48 0
63 -58 34 -70 46 1 0
