c seed 342643
c max width 21
c layers 5
c layer[0] = [1..20] w=20 v=20 c=62 r=3.10
c layer[1] = [21..34] w=14 v=34 c=107 r=3.15
c layer[2] = [35..52] w=18 v=32 c=142 r=4.44
c layer[3] = [53..68] w=16 v=34 c=103 r=3.03
c layer[4] = [69..86] w=18 v=34 c=136 r=4.00
p cnf 86 550
12 -4 7 -11 6 -16 -1 -18 0
15 1 -19 11 0
13 19 -7 -2 -20 -17 -9 0
5 -14 2 -6 0
-13 16 18 -10 0
8 14 10 0
17 4 9 -12 0
-8 -5 20 0
3 -15 0
-3 -8 -17 -11 1 0
11 -5 -19 -6 8 4 -3 0
-6 17 11 0
-1 20 -11 0
-7 -5 18 0
-6 -3 -14 0
-11 -16 -18 15 0
-10 1 13 17 -9 14 16 0
-9 -12 -19 -13 -1 18 2 -7 -10 -8 -16 0
14 12 1 15 -6 -10 8 0
8 -16 5 0
19 -4 5 0
8 -11 17 0
-20 -14 -1 -4 0
5 6 -3 0
-14 -12 -15 20 2 0
14 -5 -12 -1 0
-11 3 -18 0
-5 -13 19 0
18 20 -15 1 0
-5 -7 0
12 19 8 0
12 2 5 20 0
-20 7 18 0
14 -6 3 0
1 -14 -15 0
18 -10 -3 9 2 -6 -12 15 0
-19 5 10 -2 12 1 -15 0
-11 -20 -8 -6 -17 0
-11 -14 -2 15 -20 -5 7 -10 8 -4 0
9 13 11 0
-3 16 13 0
8 -4 -3 16 -6 9 13 19 -17 -5 -10 0
-5 20 13 -7 0
4 19 10 -1 12 0
-16 -14 2 -17 -3 0
17 20 8 -10 -2 5 0
-11 5 18 17 19 8 -12 2 0
12 -4 -11 6 -3 20 0
7 20 15 8 0
-15 -12 -3 7 0
19 -6 7 12 17 16 -13 -20 -5 0
6 15 -14 0
-15 -16 -10 0
-6 -8 14 -2 5 0
-20 -10 9 -8 2 -11 0
-11 17 7 3 2 10 0
-6 -5 -8 0
12 -3 -2 -9 1 -8 0
-3 -1 -6 2 -14 19 0
20 18 19 0
15 -18 -17 0
-15 13 -7 18 3 -5 0
-26 29 -16 0
20 33 24 0
-17 3 25 -31 -21 0
10 1 20 34 -23 0
23 -20 -15 0
-20 3 1 -24 32 -29 -34 0
-9 21 -30 0
20 -28 7 -19 0
-22 26 -17 5 27 0
31 -8 -20 0
28 -8 14 0
30 22 16 -13 9 -27 0
18 3 -33 -14 -32 0
-13 -25 -4 -22 24 33 0
13 33 30 0
-31 30 10 0
31 26 -22 -27 -7 -16 -21 -30 1 -18 -15 -14 17 20 25 0
18 -23 -16 0
-23 34 16 -20 -8 0
5 -16 -25 -4 0
-31 -23 -3 0
1 -8 -20 0
2 31 -8 0
30 -31 33 -25 0
18 21 -29 -17 0
16 -14 15 0
-21 12 9 27 -20 0
-34 32 -19 -6 0
23 -27 -13 30 5 0
-12 -30 -29 -21 0
-8 25 0
13 -16 21 -3 -7 0
-12 11 -29 31 0
-17 -12 -34 -11 0
9 -20 26 -4 0
28 6 20 0
20 -10 -19 0
20 -28 -21 -22 -23 0
28 2 -17 -10 -33 0
-31 19 8 0
26 -31 -16 0
-13 26 -29 23 -31 0
-22 -1 12 0
-21 29 -3 32 0
7 -2 31 0
8 -17 -31 -23 1 21 10 -22 16 15 0
-26 20 -5 0
6 31 -14 22 -21 -10 -18 -32 0
28 12 17 -34 24 0
7 -27 17 0
30 -12 -22 0
-29 -20 -3 -22 -33 -8 11 -2 -26 0
18 -28 -14 26 31 11 12 -25 -34 0
-5 -30 -17 31 -19 0
-22 -4 -32 25 23 -31 30 7 0
-16 9 -28 -10 15 27 22 0
12 6 32 5 0
-29 -21 -30 -31 -8 -19 0
-17 9 31 -7 23 19 0
23 -34 -6 -3 12 0
-22 -32 24 34 17 -30 0
-21 -32 -12 0
7 31 -18 0
12 -14 9 0
-24 14 5 7 0
31 14 0
10 25 -2 -28 24 -23 -3 13 0
-2 18 25 -20 -16 12 26 30 -27 0
-16 34 0
-19 23 -16 -34 33 -10 0
23 21 32 0
-34 -3 10 -25 0
-21 28 -20 0
-24 17 -30 27 -31 -3 -34 0
-16 25 2 -22 -3 0
32 17 14 -9 -21 12 -27 30 34 0
26 27 8 7 -31 0
-21 -14 27 0
9 25 13 0
-13 3 18 -33 -23 24 4 -22 0
-9 -28 -8 0
23 -6 -24 0
-10 34 15 0
-4 -5 12 -27 0
-1 22 -5 0
21 20 -4 0
-18 -4 20 9 -31 -30 19 25 29 26 -33 -2 0
-22 16 2 9 -28 -24 14 0
-3 19 -31 -33 0
10 -25 0
-13 -29 26 -9 -18 0
27 -31 10 30 0
-6 -28 -33 -31 -27 0
1 20 0
-28 -22 27 6 0
-20 -27 -7 0
-6 -17 13 -32 -4 0
2 -1 24 0
34 12 -11 0
34 -23 16 0
6 34 1 -26 23 -27 -32 0
20 18 -22 0
-9 -10 23 0
7 16 -32 0
8 3 2 31 14 12 16 -5 0
-16 31 21 0
-2 -3 8 0
41 -52 48 33 12 0
-48 34 26 -40 -39 -50 0
-46 25 51 -35 0
-44 -49 -43 37 -47 0
-37 47 -41 26 10 24 0
39 34 35 44 -51 -42 36 0
40 26 -29 0
49 38 46 45 42 43 -4 0
-19 50 -38 -36 0
-11 -45 -31 0
1 52 -30 -17 36 -27 0
-41 -14 -40 38 0
1 -5 30 -24 -39 -21 -4 -27 35 52 0
-32 37 10 -41 0
-11 -51 9 -33 32 0
39 37 35 50 45 0
19 38 32 0
4 15 -32 -44 -37 26 47 0
27 -35 49 42 0
-49 -14 3 -31 0
45 48 -37 0
-6 -14 -24 0
45 36 -37 0
-34 -27 41 0
-43 40 -45 -51 9 49 29 10 0
16 39 -35 41 0
-28 -47 36 23 48 -51 -5 0
21 -24 -15 0
-45 -46 39 0
-36 40 15 -24 -30 0
51 -11 -10 45 -1 0
47 41 -31 11 0
-50 -17 -42 41 -36 13 23 -28 25 -39 0
50 -51 -35 0
52 -14 25 -47 -16 -45 -9 33 0
28 51 9 -22 16 -13 -35 0
48 34 21 31 11 0
42 -29 35 0
21 -15 -41 35 47 0
-52 -31 44 50 0
35 16 42 27 -2 0
-37 6 19 39 0
23 50 -31 21 38 0
35 -49 -47 -41 0
51 -44 45 27 -14 33 3 -38 -41 0
-22 32 -49 0
-22 5 16 0
8 -45 27 4 -28 -50 0
-49 -18 29 -35 0
38 -37 44 8 46 -43 28 0
-51 33 -24 31 22 52 0
-9 32 -52 -23 0
-39 -45 -42 0
-5 18 -40 0
-29 -31 -12 -17 0
-12 28 -16 31 0
46 41 38 -36 -26 7 23 0
33 27 -31 39 30 0
30 14 -15 -20 0
-11 -47 -50 0
25 -41 -47 0
32 52 -47 -18 0
-44 16 22 -3 36 5 -51 0
5 -42 6 16 0
-4 -46 0
-8 -43 -38 0
-44 -50 0
40 33 -49 0
29 50 -6 36 -34 -25 -39 -38 27 0
50 -34 7 0
21 -43 -27 22 0
-38 42 37 18 13 52 -11 0
-22 -28 -36 -48 -44 0
-43 38 22 0
3 -35 -31 0
45 35 -4 0
-17 -38 18 0
15 12 -5 0
50 -11 -1 0
-52 42 51 0
-4 38 27 -28 42 0
10 -21 -51 22 0
49 52 -33 15 0
44 15 5 46 39 38 35 52 0
15 9 -38 0
13 36 37 49 9 -42 -26 -21 33 30 5 0
41 -36 -35 10 -26 0
-41 -47 -51 -33 4 -44 -42 39 0
-18 50 -42 0
10 38 -33 50 0
-23 -36 34 -45 6 -51 -35 -44 0
-36 46 -4 0
51 41 -40 39 -6 0
45 16 34 0
47 -40 48 0
22 -46 -16 21 0
-13 37 -49 0
18 16 28 0
14 -8 -26 39 0
29 25 -51 1 0
-38 -20 24 39 0
-34 -39 -44 0
-2 46 35 0
30 -24 6 49 0
-45 31 -26 -39 -52 -40 38 3 -22 28 -25 -37 32 -8 12 0
-46 -18 0
-51 49 -48 0
-47 35 -29 -30 9 0
-37 -19 -21 12 36 0
-24 -46 0
5 15 -39 10 1 0
-17 33 -41 22 21 -52 -48 0
43 -49 -38 -27 40 -48 0
-5 -17 -31 0
-44 28 3 48 34 47 39 51 -49 -17 0
39 -25 -2 0
50 -27 -48 51 0
52 -9 27 51 0
-6 50 -2 42 0
40 17 33 39 -25 -11 0
15 -51 -8 0
-32 -2 16 -23 -36 0
41 -34 38 -23 -8 -43 0
-46 17 -6 37 18 0
-33 -7 -50 34 41 38 -44 0
-44 -31 22 -25 -38 0
51 42 -18 36 10 -39 -44 38 52 -37 49 2 11 -12 0
-7 -32 34 0
34 -35 -48 0
-47 44 -42 46 0
23 49 -24 0
-35 49 -42 4 0
1 13 14 -42 9 -36 0
-52 28 31 -39 0
-36 7 37 31 0
-8 33 -30 -11 35 0
-38 -39 -37 -35 0
-43 47 22 -49 0
-14 43 0
34 -3 42 0
-28 -43 49 0
49 9 -36 -47 25 0
59 66 39 60 0
26 14 68 37 -57 -56 -60 0
55 58 53 -66 42 46 0
-28 -67 0
19 -29 54 0
-54 -61 57 -11 49 0
62 -24 -32 -6 0
-20 -14 63 -62 -51 1 37 0
56 -65 20 -53 22 -5 37 -59 0
-55 -19 -44 0
-27 -63 18 -45 0
64 -49 -58 0
-68 -26 61 47 0
24 26 -50 0
25 -48 19 34 0
34 65 -37 0
-46 67 -49 -64 0
-3 2 14 0
36 -44 64 56 40 8 37 7 27 0
-55 -29 -28 -66 64 -50 -59 53 56 -60 0
-57 45 -65 -1 0
-37 -54 -56 60 62 59 53 0
-46 68 -42 -35 0
-50 -54 -63 0
61 -67 -47 0
51 25 -24 0
42 -35 -53 -62 0
25 -14 -13 0
-43 -61 50 0
39 -63 -31 0
-56 -59 -43 60 0
-8 -68 -65 0
-35 65 38 0
18 49 62 0
-32 -24 28 -54 61 30 0
-49 -39 -34 53 0
-12 -56 48 0
35 -16 -65 0
26 -57 68 -67 52 0
60 10 58 -63 -56 0
-68 59 31 35 40 0
-40 67 53 0
-39 -66 40 51 0
-2 -67 39 0
-63 36 67 -30 57 -39 -55 0
15 25 -53 0
60 -31 -56 34 0
19 -29 60 0
-45 -50 51 0
30 47 -25 0
42 -61 -66 0
-19 25 -64 0
-29 67 62 54 56 48 40 0
59 47 -63 0
-57 -58 62 -61 65 0
15 64 42 63 -13 3 48 21 -61 26 57 37 67 -39 -54 -59 66 0
-52 -63 -55 68 -24 0
-65 -56 -28 61 -62 26 -66 0
-52 -54 18 -51 -43 0
39 62 68 -66 0
-49 67 64 56 62 0
-67 -65 -16 0
-37 56 63 0
59 41 -55 36 58 0
17 -58 -38 27 28 -14 24 50 0
-22 30 56 0
-16 -67 59 0
-59 -23 30 -58 -2 -56 67 0
40 27 49 -65 0
-47 -31 15 -65 0
34 -41 68 0
-61 57 59 -63 -56 -51 0
-44 -52 -60 0
47 45 -56 -59 68 -34 55 58 -25 20 0
26 -42 62 -55 0
-31 -66 -40 0
61 -56 -40 0
-14 58 53 68 -46 -63 6 -31 -34 40 -48 0
49 50 42 -64 0
-44 2 -26 0
1 64 68 0
25 -57 56 51 54 -26 62 48 58 0
58 17 66 10 -64 40 36 -50 27 -2 -1 -45 0
42 -55 -57 21 19 48 0
68 44 -61 0
-67 61 41 0
19 54 -55 0
-59 4 35 -7 -53 -54 0
37 -57 -68 -55 -54 -51 27 0
40 62 0
-67 18 -55 -31 0
56 -17 -57 0
-55 30 13 -63 26 -7 -64 0
59 67 -5 0
18 49 -67 24 -63 0
-60 -61 -36 0
50 40 -51 -65 64 0
60 61 50 0
48 -53 -57 65 0
49 51 53 33 -48 -60 -61 -54 -57 0
-57 48 47 62 34 0
60 -64 24 -62 -41 55 54 52 0
44 21 -49 38 63 52 0
-21 -80 -55 0
-66 78 19 61 -85 0
-57 76 56 0
47 18 66 -84 0
68 24 69 0
-75 61 81 85 0
-17 -7 4 -82 -36 0
36 -86 -70 0
20 -43 -9 75 32 84 72 47 -76 82 0
15 -49 83 0
-35 52 -68 45 0
73 16 -30 -51 0
74 -71 40 0
-1 -24 40 70 61 0
2 -56 55 0
-58 -79 86 0
60 -53 54 -83 79 0
64 -66 80 -73 35 -53 0
-55 -81 -78 47 0
55 71 -77 -74 -69 0
-12 57 66 -72 77 58 24 11 0
-41 81 64 7 3 -77 0
43 -84 -79 -54 0
-82 -54 79 -70 -53 80 0
60 39 -44 0
-69 -60 70 -61 62 11 0
-84 -83 -64 -12 72 76 -67 71 86 -56 0
-71 66 82 0
-86 53 81 60 -46 82 62 -52 0
72 83 -76 47 -38 79 -57 85 -63 -80 0
-55 -5 72 81 -30 -9 63 51 -73 70 0
-69 -79 -77 0
-61 -74 36 51 -86 85 0
78 81 72 53 -64 59 -84 0
-14 -59 -80 -76 0
-82 67 -85 81 -75 -54 -14 0
10 -85 -84 5 -65 0
-23 -83 -64 0
9 40 56 54 -74 -72 0
72 -11 -83 0
-7 40 -38 59 -44 73 0
-73 67 0
80 72 85 -78 -83 81 -76 0
-56 53 -62 -81 72 0
83 -86 21 -55 82 -30 -79 39 76 85 74 58 0
-39 59 -80 -60 55 0
62 -1 0
-71 -67 72 -55 0
-72 -75 71 -60 0
57 68 -63 69 58 49 0
-84 -69 44 -75 54 41 0
-56 -47 75 -58 -59 -81 -64 0
-67 -65 -78 0
-76 39 -54 -25 34 0
62 -85 50 -57 0
-72 73 46 75 0
84 77 83 0
-63 -28 -78 0
-56 77 -67 0
77 75 14 -36 28 0
80 -83 43 -4 0
-10 -69 -79 8 76 0
-77 -63 -85 75 0
77 -70 -74 72 0
27 25 -58 65 79 -84 83 75 -72 0
49 8 -75 -69 0
-82 -58 -54 0
-73 63 -86 -59 -46 0
-34 -23 83 -75 0
-70 60 -52 0
-53 86 -60 82 0
-77 80 47 82 -69 84 -52 -72 0
-70 85 69 63 0
76 35 -58 62 0
64 -75 55 0
40 -66 74 -68 -69 55 -38 0
64 -75 63 -66 74 59 -54 0
-66 74 -64 -65 44 33 73 54 85 51 0
-80 79 71 0
85 66 -82 0
-79 58 -75 60 -76 0
-38 -73 -80 -52 59 -56 -13 -32 -55 0
-73 61 77 -57 42 0
-69 75 -85 0
-59 -33 83 -76 48 0
71 -42 -69 0
-51 -66 -72 47 -50 73 -74 -21 78 0
-82 80 -57 78 -76 83 -35 -69 -58 73 65 85 0
-75 53 0
17 -54 -86 -76 0
71 82 68 -69 0
53 -50 82 0
-48 20 86 -64 68 74 66 41 0
77 -20 75 0
-68 64 63 78 75 0
-53 59 -7 0
79 66 64 31 86 84 -34 57 0
-55 72 65 0
52 -81 -69 0
25 56 62 0
62 55 -38 56 0
83 -8 6 68 0
-84 22 -70 0
78 -76 -73 -13 -80 -8 0
-81 22 59 48 64 74 0
-77 -41 -69 0
33 -86 -72 0
70 41 0
17 79 -76 -6 0
71 -50 62 80 0
71 -72 59 0
74 57 -69 0
80 62 -6 57 0
-70 61 -80 0
-79 70 41 13 -75 0
-50 83 -74 51 -54 0
-70 -50 -71 0
77 -49 85 68 -25 -62 76 75 0
-41 -84 -78 0
-62 -81 69 0
-61 -77 86 -48 0
-65 32 53 -78 67 0
-53 68 57 -75 81 -36 0
-73 34 1 79 0
66 -75 -76 -71 29 0
27 -74 66 0
-67 -25 84 68 0
78 80 -62 0
80 83 60 43 0
-82 -36 0
-68 70 -39 74 -36 -79 -45 67 -53 42 -75 -44 -29 -86 54 60 0
37 80 -78 76 0
85 61 -27 54 -53 -16 0
-70 -5 -68 0
75 34 70 -72 0
-51 77 58 -57 71 -75 0
