c seed 336980
c max width 29
c layers 5
c layer[0] = [1..18] w=18 v=18 c=71 r=3.94
c layer[1] = [19..45] w=27 v=45 c=184 r=4.09
c layer[2] = [46..67] w=22 v=49 c=197 r=4.02
c layer[3] = [68..95] w=28 v=50 c=203 r=4.06
c layer[4] = [96..122] w=27 v=55 c=242 r=4.40
p cnf 122 897
-3 1 -8 -10 5 -6 15 0
17 -13 7 0
16 -7 11 0
10 -5 18 0
-16 13 6 14 0
-12 -15 -4 -14 2 0
4 -9 12 -1 8 0
-11 -18 9 3 -17 -2 13 16 0
4 5 -16 -11 14 7 -2 -18 0
-16 -12 -13 0
14 1 11 -4 0
13 8 -9 0
-8 9 -4 0
3 -5 14 10 15 -2 -11 -9 7 0
15 9 -3 13 1 -10 12 -18 0
-17 16 -10 -1 11 0
17 -16 -3 -1 -10 15 -11 0
-2 15 -3 0
-2 1 10 17 9 5 12 3 13 0
3 -2 8 12 0
6 7 16 0
14 -12 10 0
11 -6 -5 -10 0
17 15 0
-18 3 10 6 0
1 -15 9 -13 7 0
16 18 15 -9 1 0
10 -1 6 0
4 -13 0
6 -11 10 0
-8 16 4 -11 -7 0
2 -13 -4 -17 -11 -1 0
-1 -6 11 0
3 15 12 14 10 0
-5 -15 -12 10 16 -6 0
-14 -10 -5 3 0
15 -11 -10 -13 -2 5 -16 -17 12 0
-12 -13 -2 0
-2 11 4 13 0
12 -16 -1 0
16 12 10 0
-2 -8 -6 -14 -18 3 1 -16 0
10 -8 18 0
-6 -16 13 -3 -2 -5 0
14 -18 -8 1 -13 0
1 -18 12 -14 13 0
-13 -12 -2 0
12 6 -14 -5 0
-3 7 6 0
17 -8 0
5 8 -12 -10 7 3 0
-14 -12 -16 3 13 -6 1 0
-17 9 18 0
18 -5 -6 0
-10 4 15 0
14 12 0
2 -5 -15 3 0
8 -4 16 -5 -15 -7 0
5 14 0
16 3 0
6 17 -7 -15 0
-7 -10 -8 -12 0
-6 -1 0
2 9 7 6 11 16 0
5 12 -16 -10 8 -18 11 -1 0
-10 9 14 0
-10 -17 1 6 0
9 -1 8 -17 -6 -10 -15 0
-9 12 -3 10 0
14 -3 7 0
-3 -10 12 14 -11 -17 7 0
-8 -40 15 10 0
-21 -29 -23 39 0
-3 -16 22 -8 0
5 32 15 -8 -17 -6 10 0
3 15 25 43 -35 0
5 14 -25 0
-16 -18 14 -10 9 40 -41 0
31 13 -17 0
35 28 -3 13 41 14 0
1 11 -27 0
-2 20 10 -24 8 -14 12 0
-7 -4 -22 0
3 -17 24 33 -34 -30 -38 36 0
-2 -36 7 10 -43 42 0
-33 34 19 -4 0
44 38 26 16 0
-37 7 16 10 0
30 -39 4 17 -12 9 6 0
45 21 -42 29 27 0
8 6 -15 4 0
-28 15 8 10 18 -45 0
5 -44 -19 0
-31 -9 -26 23 -6 -20 37 -32 -21 12 0
-25 31 -17 28 0
-17 -8 21 1 11 12 -40 -28 34 31 -2 0
9 8 -42 -24 15 -37 -40 -36 -23 -13 0
32 -28 13 7 41 -35 0
31 -17 34 -32 39 28 0
11 -23 -15 -13 -22 -14 0
27 25 42 4 0
28 -15 -27 22 -8 34 0
-12 -3 -42 6 21 -35 -33 -24 -38 0
-29 5 8 -18 0
12 35 -6 0
-17 -43 42 0
7 -9 12 0
-5 -29 -1 0
-25 10 14 0
-34 1 39 0
-6 -27 -32 0
25 -33 3 -14 36 -5 0
-35 -37 33 -9 -44 0
8 -19 24 38 0
-19 5 -10 -13 -29 -36 0
-43 -34 -21 41 0
-38 -6 -15 12 -7 0
15 -9 -38 14 24 -20 0
-18 33 -12 7 0
-4 -5 16 -23 9 0
26 4 -13 0
-8 19 13 -27 -11 10 0
3 44 -25 -42 0
4 12 30 8 0
13 -5 27 12 -40 -21 -42 -20 0
-10 -3 -15 0
-40 -28 0
12 -19 -6 0
15 27 -24 0
-18 41 5 0
-39 1 -7 34 0
13 -36 43 0
5 -33 17 18 6 0
-18 -14 35 -3 0
41 -10 -7 -4 0
-31 -19 21 1 0
-32 -27 26 -12 0
-11 3 -28 0
-5 8 28 2 0
-39 -5 -16 0
-17 -1 -35 9 26 0
-39 25 -31 -18 13 -24 -8 0
26 40 18 0
-38 14 -45 29 -18 7 -1 0
-13 10 35 22 -21 5 33 0
-17 11 3 43 -8 35 30 0
14 40 -45 -29 2 24 0
-18 -28 39 -16 13 0
17 21 14 -16 0
-15 24 -42 0
-24 -6 -29 -20 43 -10 25 0
-30 -45 -7 4 25 -9 0
-7 -34 37 -29 0
26 29 -36 33 27 32 0
-5 -26 -22 -4 20 -32 0
25 15 29 -33 -2 24 0
42 14 40 -16 -17 -2 27 15 -7 -8 -31 29 0
22 35 -15 0
16 8 -38 0
32 -34 31 0
27 40 -7 0
-26 4 19 -31 0
-34 -41 -4 -32 0
44 -3 -12 -16 -40 -8 0
7 -12 -41 0
-31 -16 4 21 0
-20 -9 -13 -22 -11 0
15 37 -2 -34 0
27 -13 5 31 -15 41 -25 26 -33 0
17 9 10 -13 38 -7 41 -14 -18 -37 0
-1 -23 -5 0
2 8 -23 -31 15 0
15 5 0
8 24 -25 2 0
-7 35 37 0
29 7 -6 -30 0
43 -8 23 -40 -26 0
-16 6 -17 0
1 5 4 0
2 -23 -3 0
3 -9 5 -1 0
24 -3 -21 -16 0
31 44 33 0
45 -8 2 39 0
13 33 -36 37 44 -35 -10 0
26 -22 -32 -19 0
-42 -16 -32 1 0
-42 10 7 0
-14 39 16 17 -40 -31 -35 -26 27 0
-2 -30 4 3 6 -42 -1 0
-10 36 -39 3 2 -38 0
10 -30 -17 0
-18 34 -15 0
43 -18 23 -32 0
-21 44 5 0
9 -34 -4 44 -3 -6 43 -26 0
2 38 -15 1 33 0
32 -31 -15 -23 19 35 -22 9 -17 -12 0
29 3 -4 16 0
35 -11 -45 -41 0
-9 35 45 0
15 37 -41 44 -4 -3 -25 -33 -2 11 17 40 21 -10 14 23 0
-15 -27 -23 -7 0
-3 -17 -37 24 -38 13 -26 18 9 0
10 -26 6 18 0
5 12 -37 -7 27 0
43 2 -1 0
-27 -38 -20 0
-40 -10 -45 44 9 -16 0
-22 45 -37 0
9 -18 33 0
-41 -10 22 -8 0
32 5 3 0
2 5 -26 6 -41 0
37 3 -5 0
-42 29 37 -9 0
-3 43 15 0
15 -37 34 0
-23 25 8 0
18 -7 -1 13 0
20 15 13 18 37 16 9 0
-25 37 -14 0
6 16 -8 15 0
-41 32 -3 -10 0
42 26 -39 41 -25 9 0
-17 -8 -43 0
-4 -9 27 11 -44 0
5 -13 -19 -6 7 0
9 41 5 7 -31 12 1 13 0
-7 32 27 18 2 0
-42 -45 14 0
-41 -22 30 10 -12 -40 1 43 13 21 0
-20 -4 -42 44 0
-43 -11 5 -10 -20 21 0
-4 -19 16 8 10 24 -1 0
15 14 9 -29 0
24 -34 -44 0
13 17 -10 6 3 -19 11 0
-14 -24 -11 -42 -7 0
-16 -35 -34 0
-33 -9 15 -23 39 44 -14 -11 0
-21 -9 -38 -3 0
-34 -30 -11 16 -36 -7 0
44 13 -37 15 2 0
-10 -44 -5 0
9 -27 5 0
-14 40 26 15 -17 0
-28 16 0
-42 34 24 -15 0
-4 16 7 -23 17 21 19 26 0
1 -35 13 0
-13 14 27 0
-5 19 40 45 0
-45 -21 -35 11 5 0
-44 -8 -40 22 11 -18 -5 0
22 -40 -30 24 36 -54 0
-47 45 -28 66 0
-1 -13 59 0
6 -2 51 0
26 13 -17 -1 9 -16 -25 64 43 -63 -30 -56 12 -27 -19 0
-49 54 48 16 62 47 -55 0
-23 52 -35 8 12 10 0
45 -53 -17 55 58 0
-66 8 -60 0
-15 6 57 -12 -8 46 61 -16 0
63 -64 50 -4 53 0
42 16 17 33 0
43 -48 -27 0
56 8 36 -52 0
4 -31 13 0
-28 -62 -61 67 -50 0
65 -58 6 0
15 -28 -34 25 0
49 -57 -13 -51 -67 0
-46 -65 -59 0
-12 60 -48 51 0
15 -53 -62 -2 13 0
-59 29 -28 0
58 52 45 62 -67 -43 55 -17 0
14 -15 23 51 0
-34 -48 -65 42 58 0
-55 60 33 0
-7 47 -54 5 0
-35 10 -45 51 0
-63 -42 18 -17 0
57 33 64 -27 -39 66 3 0
58 47 4 1 0
25 8 32 0
38 34 -47 61 0
-63 -51 -48 -60 0
-21 -50 -28 0
-10 -6 64 67 0
37 9 -12 -52 59 0
-54 -31 64 -30 0
-50 -54 -25 44 0
-65 48 -18 60 56 0
-56 -36 18 0
60 -12 -33 0
-22 -12 -57 -62 59 50 65 0
-18 6 -46 0
-63 17 43 48 0
31 64 -17 -57 37 61 0
46 7 -66 0
15 -64 5 55 19 0
-50 -32 57 15 45 56 -62 -38 -67 0
58 11 -32 -16 0
-30 -35 -47 0
1 -8 -62 -10 -63 0
42 -37 -47 67 0
51 -65 -4 59 -1 52 0
15 48 -8 -7 65 0
2 41 53 66 0
-14 -59 -48 52 63 0
-23 -60 -2 27 18 0
46 -54 -33 0
63 -55 7 -15 0
64 -49 62 66 10 36 31 0
46 -44 55 0
17 -15 25 -59 8 -28 0
46 56 50 1 -41 48 21 0
34 -7 15 0
29 19 -54 -5 0
25 56 -41 -1 -14 18 0
-7 -54 48 50 18 0
8 24 29 -47 -5 0
-57 7 8 54 -66 17 1 0
-24 -46 12 0
-59 3 -60 0
51 37 19 46 -30 0
-55 46 -67 0
47 -48 56 16 49 0
63 28 -54 0
-32 -65 39 -52 -7 48 0
-19 56 65 62 -13 15 21 0
-66 -17 48 6 9 7 -64 -65 -61 0
57 59 61 0
-49 31 62 20 0
50 -32 15 -46 38 29 7 -16 -61 11 -8 0
33 46 18 32 -24 0
59 -43 -26 0
-58 32 6 17 -57 62 5 -54 0
65 54 -34 0
-55 -27 39 0
37 -46 -45 8 23 -55 11 -61 0
-5 -6 53 -18 60 58 0
54 -18 -37 0
-54 31 64 62 55 -58 -25 12 -63 33 10 0
20 -50 65 28 0
-52 10 62 -55 0
-46 -65 67 -47 0
-25 -66 58 -41 64 -6 0
62 40 -60 0
-11 23 -56 -31 -52 -19 -63 0
28 -33 61 0
-50 1 -27 0
-37 57 -54 0
-64 38 -24 0
53 66 23 0
-1 54 51 61 -50 0
-9 -52 19 66 0
-61 -10 -50 -59 52 54 6 29 -20 44 64 31 -48 66 0
49 61 38 47 0
49 52 12 0
57 9 56 53 -40 -58 -12 13 0
-12 -6 65 36 -63 0
39 19 -53 66 -47 0
-32 59 43 -46 -56 0
-48 -17 -51 33 -22 0
-7 -8 49 0
7 -18 -61 0
-54 -50 -67 -1 33 52 -29 0
46 -16 -18 0
8 36 52 0
-21 -28 38 -33 -3 30 -61 48 4 -39 63 24 0
2 -49 -55 0
50 -62 -32 0
-13 -59 -53 0
38 -29 -50 -40 -47 7 -49 -58 0
-23 50 38 0
-44 -11 27 18 3 22 0
46 31 -11 0
-56 36 -55 42 66 0
-29 6 -63 58 -11 -65 0
49 -6 0
-47 63 23 -49 46 17 -6 0
57 66 -49 -10 0
-40 3 0
-54 -20 -24 10 0
-47 34 42 0
-22 52 16 0
13 -54 14 0
32 47 53 59 48 -51 7 33 54 -66 25 -43 0
-2 -36 -3 -17 66 -53 0
52 -16 -24 0
16 -36 62 58 0
-7 -53 -58 0
45 50 -67 -53 60 63 0
-51 -40 -48 0
-4 -59 -58 0
16 18 3 0
54 63 -12 66 0
-37 48 67 3 0
27 -53 -35 0
-5 -61 13 50 60 0
-19 63 -24 0
65 -36 10 0
55 42 63 -59 -13 -4 0
7 60 -65 52 -48 -47 -8 -55 15 -51 0
20 -37 4 -34 -18 -11 40 -54 -51 0
-5 -44 54 0
-4 -48 -7 0
-21 64 -22 8 -18 -50 0
24 55 60 -47 0
-1 16 -24 0
34 -52 63 -2 -53 -67 0
-67 14 48 15 -2 51 0
62 -4 46 57 0
22 57 -54 61 0
63 -14 -7 0
-7 57 32 0
-63 -56 60 -23 10 -46 -44 0
-56 -14 -40 34 21 -33 -52 -11 0
-50 61 58 8 0
60 -4 -52 50 29 35 45 0
-27 -30 -1 0
-55 -52 -12 48 -60 63 0
5 -32 -13 -26 0
-39 -2 25 -47 -18 -65 33 59 0
12 -6 -50 -24 -13 0
-52 10 51 -63 0
-65 -22 9 14 52 -4 -6 35 44 61 17 -11 0
51 -54 0
23 33 -58 -62 0
-33 -48 -38 64 -60 0
3 -48 29 0
60 41 -51 -44 -58 -35 48 14 -9 8 -66 0
59 -30 11 60 -51 0
51 46 -66 56 0
-53 -42 -59 0
-53 -60 26 0
-17 -47 -9 0
2 62 17 -47 57 -56 -67 20 -61 0
53 6 0
-24 -60 -9 0
41 -58 54 -39 37 -8 56 -33 67 0
-63 -14 -59 -9 0
49 -58 -15 -40 1 53 4 -45 -42 0
17 22 33 -14 0
51 14 -61 0
-60 -2 21 36 -61 0
49 58 -37 0
60 -46 -4 -52 5 67 -63 28 -27 0
-57 -51 -92 74 33 0
80 -53 -94 -91 0
-61 -29 -70 0
-81 71 -7 0
75 -33 -72 -73 -63 55 -54 86 -95 -12 47 23 0
-69 62 -47 -46 -90 -78 52 -74 0
-77 -84 -7 32 0
81 66 8 -52 23 -76 0
67 -51 -75 0
-85 70 -56 89 17 0
61 46 72 0
78 73 94 0
-83 -65 91 -82 0
87 9 -80 -33 0
-79 -16 68 0
56 3 90 0
-93 59 58 -65 56 55 95 0
-47 -25 0
83 -40 -36 0
-13 77 -88 76 0
69 82 -68 3 49 1 0
-28 -54 85 0
-86 10 15 46 37 0
93 -54 84 -71 41 -87 0
79 92 -47 0
47 -4 36 49 -1 -89 88 -87 0
92 -70 50 0
88 58 -90 47 0
90 81 -50 -58 -86 40 0
65 -91 -72 0
-17 -10 -85 -51 0
-80 -69 72 14 0
82 -80 58 81 0
69 15 38 -89 95 0
65 76 -88 0
-68 49 -81 0
-48 75 87 0
66 77 -16 0
57 -80 81 18 20 -78 -76 -87 0
-88 -2 -87 0
66 -89 -16 0
-49 33 -81 -86 0
88 -59 -79 19 0
80 -71 -91 0
55 77 -81 0
-95 -91 -88 -12 0
16 -41 83 0
-78 70 86 90 88 -46 -2 74 0
74 -66 -63 -69 -94 0
4 84 -47 -89 0
-10 71 28 -15 -62 47 81 90 0
-6 -71 11 0
-56 85 -18 0
-81 -49 94 0
18 85 -66 -57 76 64 3 62 5 94 0
-67 31 88 0
-92 83 50 68 0
-38 -78 -67 63 0
62 -7 81 -93 90 0
-94 -26 35 0
-69 -53 35 46 -83 -87 -51 60 0
85 -44 -67 -83 78 0
81 87 92 -58 75 -57 0
82 50 80 0
34 -18 -90 0
-74 77 73 -61 0
-69 -56 -63 -71 86 -51 76 0
-63 50 71 -37 0
13 56 90 0
69 72 73 71 32 0
64 71 -5 -74 81 0
-58 78 95 -69 20 -19 46 0
79 8 35 78 0
77 -29 90 -69 63 0
-14 -39 11 0
44 -69 81 54 0
72 -94 12 0
77 -87 -92 0
54 -30 -78 -93 0
72 -84 83 0
1 74 87 0
-84 -87 -50 67 73 79 10 -28 0
-76 -46 79 90 -93 -24 0
45 94 7 -53 0
77 49 75 0
-54 -47 -73 0
-31 56 -95 81 0
-4 91 -1 0
-72 -87 -26 54 0
-65 62 80 0
80 32 -69 -76 -62 0
73 -9 65 -89 86 0
95 -55 69 -71 54 -18 25 0
74 60 -10 0
-72 -45 76 4 -58 26 23 0
90 83 81 -89 -3 17 0
77 -85 -72 0
-57 68 7 -95 -83 0
-49 -66 46 0
22 60 -89 59 -68 0
34 68 -93 70 -78 -16 -46 -60 -5 0
78 58 46 -74 26 0
3 -78 -63 0
68 -14 -44 81 78 84 27 -93 -40 89 -77 0
16 93 -50 0
-65 -50 -57 74 0
6 49 51 -85 0
93 30 -74 -21 94 -61 0
52 71 89 19 -24 0
80 -73 4 0
-83 -49 79 0
87 -75 22 74 -77 0
-30 -86 -58 -85 0
-3 -34 14 0
-93 -82 16 83 -49 0
86 -10 -94 47 66 -29 38 57 0
40 -50 29 48 -4 0
55 -15 -10 -91 0
-6 87 65 54 -28 25 84 52 -47 74 0
76 17 -93 0
9 82 90 -70 0
-76 59 -84 93 0
-85 -54 76 0
-93 -85 39 84 0
66 77 -7 -39 -21 -63 0
-4 -60 -88 -71 0
50 -57 78 -75 -14 -60 55 0
-31 -92 65 -84 0
-71 -32 -7 -72 0
59 -46 -85 0
72 92 -62 -50 -86 93 -73 10 12 7 57 0
65 -62 58 0
48 65 -81 83 0
-72 -95 -70 0
-38 -89 -75 50 0
-84 72 37 -70 0
-48 32 -67 49 89 -53 79 92 51 -2 0
74 -20 80 -12 -67 -69 0
3 -85 -69 -58 0
-69 -35 95 18 0
-86 -50 94 0
-75 15 46 60 -18 50 85 91 -30 -76 78 0
-92 -76 -71 -12 0
-23 61 72 -34 46 95 90 0
-43 -50 -8 -87 62 -65 75 0
49 64 -78 0
49 80 -88 23 -77 30 0
50 -61 -92 93 -62 0
-58 -23 69 -81 88 72 8 -51 85 0
-25 59 43 0
-58 86 -21 0
74 -86 61 -71 70 27 0
78 -22 -73 58 -75 -31 0
86 85 6 -95 0
61 -92 -3 76 0
65 75 -2 0
31 36 48 -84 27 -82 0
-85 -15 61 95 -25 -84 0
-95 -60 83 0
-57 -86 56 -58 0
-12 -63 -57 81 0
56 13 -94 0
-66 -69 -48 -73 0
-77 -60 -59 -48 -22 79 -27 0
79 -62 13 58 0
-83 -18 15 -39 94 64 -81 -82 29 54 90 -63 53 0
10 -49 -70 -73 82 -78 0
82 -72 -3 -50 -40 0
81 -76 83 0
59 -93 91 94 83 77 0
73 -33 -21 0
-77 59 -36 26 -8 0
-87 -68 10 0
-78 -79 73 13 0
21 -52 -16 -5 -78 -88 -83 72 -51 89 0
83 78 -89 -80 -2 -77 0
-11 7 6 0
59 -93 -65 -75 -89 0
-38 62 67 70 56 0
91 56 -72 0
70 -42 -11 -23 -43 0
-80 -62 43 0
-72 54 -81 -10 0
92 -36 32 0
80 84 -92 46 81 91 -90 72 0
-77 -83 51 30 32 -92 34 -58 -12 -95 0
-90 -64 53 -66 60 79 -41 0
-94 -83 61 -32 0
46 51 -61 0
89 -69 37 15 88 82 0
58 -73 84 57 4 0
-28 -68 -76 -94 0
-95 81 65 -7 0
68 -71 70 -76 0
-4 -94 84 0
42 -71 86 84 0
-89 90 5 43 -80 0
-62 21 -76 -92 -88 -1 52 -44 16 0
76 30 61 -79 58 35 47 -69 0
69 -57 62 43 81 0
-78 -26 -53 0
15 -47 -63 -91 74 -90 -46 72 88 0
86 95 -63 -83 -51 -62 -68 -71 -46 -15 -90 -31 0
93 100 31 122 61 -121 115 106 0
72 -96 -116 0
-122 -44 -63 104 0
119 112 105 -103 65 0
92 -56 102 0
111 -120 17 -63 94 -104 0
-76 -119 -26 0
62 -115 -64 120 0
-83 -98 -11 0
76 -114 58 0
69 -78 91 -106 0
-118 74 6 78 0
97 117 48 96 94 0
-9 -51 -65 0
91 31 -113 -54 110 68 0
101 113 47 -89 -99 0
78 95 91 66 0
77 -107 108 118 0
88 -117 99 0
-84 -102 -78 -67 -80 0
95 -101 -108 -111 -13 61 98 0
109 107 19 0
-13 116 -97 91 114 -112 -23 103 0
-110 -109 -105 0
52 -89 121 -100 -44 101 91 0
17 -120 -69 -101 0
13 -113 99 0
117 114 107 0
-28 75 111 -100 -71 0
104 103 -105 0
-97 95 119 -115 114 0
-101 56 110 93 0
-65 -93 -67 50 0
-119 -89 -74 0
27 76 92 -58 0
96 -64 77 110 107 -86 -98 72 83 0
-113 76 -110 84 40 118 -13 0
-120 57 79 -8 -72 0
87 31 0
77 88 -40 0
114 106 -90 -60 108 -38 -96 100 70 -89 0
96 -104 122 -116 0
51 79 -97 7 95 100 -105 104 -84 106 2 -21 73 0
116 -113 -108 -83 0
-117 -107 63 -112 -74 115 0
91 -90 100 0
-113 -63 29 0
98 -77 80 0
-91 -1 93 0
69 86 96 -35 0
100 109 -18 0
-100 -115 68 0
-107 98 114 122 -27 0
-34 -110 -43 108 0
3 120 88 0
-72 -115 -69 -112 0
-73 87 95 116 -117 65 -83 0
-101 -42 -14 0
85 111 -102 90 -62 51 0
118 -47 -110 115 0
25 -96 -105 78 108 104 -6 75 -111 -76 115 -103 64 0
113 -78 100 -61 -120 0
112 94 -104 65 120 111 0
109 116 13 -74 -96 119 0
-100 114 -93 0
113 -120 -101 -118 0
47 -115 108 0
113 -118 26 45 119 0
-78 -42 115 -114 91 0
-101 -103 -117 0
-109 -92 95 -114 -119 0
102 120 103 80 -77 0
-113 115 67 89 104 105 -36 0
-112 85 119 0
-115 100 -72 0
112 -114 -113 0
97 6 -91 0
100 89 56 68 97 121 69 -101 0
-93 -66 -54 -59 0
-90 110 80 0
101 66 -1 -121 -95 0
102 82 118 70 67 -89 116 -117 109 0
73 17 -59 -116 0
-105 32 -115 59 93 0
-116 -68 -55 74 -82 -65 52 0
-118 -112 -56 0
62 -66 108 0
-105 1 103 0
-64 115 32 -119 -120 0
102 -30 -111 62 -70 -101 -95 0
-54 -112 -110 -71 -119 0
-82 117 -71 100 0
-74 -61 63 0
-111 122 113 -64 0
-18 -87 -58 0
-74 -64 17 68 0
74 101 -106 -11 -120 117 93 80 -38 0
-95 -62 -111 -112 113 72 -80 0
-102 -98 -96 -82 0
103 -88 -119 94 -107 0
-108 72 69 0
97 -63 10 91 -114 14 -101 -106 117 85 0
-47 -90 -103 -80 -104 -5 0
-75 -120 -4 0
-44 -2 -85 0
-101 76 80 0
-55 116 -70 -109 -46 89 -82 -5 102 0
-81 -107 -118 -73 -84 -111 -117 0
88 -97 -116 -55 96 0
98 113 -89 0
95 100 55 0
109 -90 21 0
-112 111 -103 0
101 90 72 0
-50 -77 -104 -29 -46 -114 -66 -109 0
112 114 84 -110 0
41 11 -117 0
-66 -113 -78 0
68 104 66 -106 116 -87 0
29 -90 -119 0
110 -109 69 -91 -121 -47 0
61 19 -69 0
101 -76 105 109 113 96 0
-113 -68 105 61 -8 0
93 -20 -96 113 9 -99 73 -78 118 -110 0
-83 69 -106 104 0
105 -104 -90 0
97 100 110 0
-117 -120 60 -102 -116 -99 0
8 122 64 117 0
-2 -98 -112 0
-89 -83 116 -110 -98 -118 -13 0
66 -90 93 100 0
114 -79 -77 109 21 106 59 -71 -98 -10 93 -80 0
-99 87 -115 -122 0
-48 122 -9 98 0
110 -37 114 -105 108 -94 0
-103 112 92 113 0
-71 -3 -73 -108 0
-97 76 106 0
110 113 -120 67 -116 -115 0
110 -67 115 108 0
-122 109 -118 0
-23 102 -107 82 -103 93 0
105 114 -103 -97 96 0
53 59 -87 -81 -118 0
-74 20 -108 0
-91 96 -102 104 -70 0
-96 -113 77 118 0
-77 -75 95 0
-101 119 -9 0
-104 8 -95 -115 -70 56 0
101 -109 96 0
96 -116 -2 0
120 109 57 0
107 96 -103 -116 122 0
96 88 99 111 0
-105 -121 72 0
51 100 83 0
18 -111 56 -9 0
79 -116 -98 0
-122 89 -80 0
-106 -120 -121 0
-102 48 43 33 41 92 -107 -109 93 0
107 -4 -112 -110 119 -83 -99 0
-69 -77 103 -51 32 0
31 38 -77 -80 0
83 104 1 -116 101 109 -119 70 -71 0
-102 -63 -92 43 55 -3 -68 110 -85 122 106 -18 -119 121 42 -70 0
113 61 100 0
98 -104 -116 -115 17 91 -29 99 0
97 -89 -115 62 -80 117 109 0
-116 -117 -110 -118 71 0
37 -102 -25 0
100 73 -102 -81 -98 69 0
-82 88 89 0
112 -74 116 26 0
-97 -108 -121 -83 0
-72 119 99 100 -48 23 -51 -11 -110 113 0
30 -52 0
56 91 116 0
-47 95 -90 0
49 -121 104 0
89 -67 -15 0
60 96 50 0
-109 72 -81 0
-118 91 -110 117 95 102 -122 -97 -44 -73 114 0
-112 110 66 0
-95 -120 11 72 0
5 53 92 84 0
-66 -110 121 -105 61 108 0
-3 -111 -75 -17 0
-110 -106 -113 109 59 0
-89 -107 103 65 105 113 108 -100 -115 -60 -69 99 -119 -109 0
-110 57 -38 94 -91 70 103 25 -116 -101 0
-119 -113 -44 105 -15 0
-111 60 -58 -55 0
-66 115 105 70 -1 0
-108 -5 -84 0
117 15 -102 -111 -87 103 -83 0
101 -46 -94 -100 108 62 45 -120 -105 98 59 -121 0
97 112 72 0
-71 -119 -103 56 -84 80 0
-120 -30 -25 55 0
-88 95 -47 0
79 114 5 16 76 -111 0
84 89 110 72 0
-120 -114 -103 -75 -80 0
2 66 -71 0
83 -98 118 94 117 0
67 111 60 -122 -78 -109 108 -98 115 72 -47 -110 -90 117 0
-57 86 113 67 -116 -115 0
-70 -104 122 -100 0
110 -81 -60 80 -90 57 -119 40 -89 69 -87 0
109 113 34 0
-117 -109 -106 0
-59 -94 0
-98 -111 120 -106 -40 0
97 -72 109 0
69 -81 -39 3 60 0
11 -38 121 81 0
-100 116 -84 0
-97 52 26 -54 0
115 112 91 0
113 122 102 -101 52 33 106 0
-98 41 -68 120 81 -104 -56 87 109 0
107 112 93 0
-108 105 -120 0
121 -92 52 0
76 46 -84 9 -106 -118 0
-97 -50 -102 104 112 -110 0
107 102 74 0
113 -63 117 -76 75 -49 -118 0
-77 86 71 0
109 -120 55 0
117 -101 -102 -121 -87 -75 0
44 108 18 0
-68 -84 85 -104 118 -109 0
-89 -102 -107 75 81 0
67 74 111 -64 -75 -88 0
79 -9 52 42 100 53 -110 60 -92 0
-104 100 107 0
