c t mc
p cnf 27 157
3 8 -2 0
-11 13 -5 0
-9 1 -6 0
4 6 -13 0
2 11 10 0
9 -10 5 -3 -1 -7 0
12 7 -4 -8 0
-12 -9 -13 -7 0
4 -10 -5 -6 -1 0
12 -9 8 0
-1 7 12 0
1 -7 -11 3 -13 0
-11 4 -6 0
8 7 10 0
-9 -4 2 12 -13 -11 -8 -5 7 0
2 -9 0
-3 13 11 0
-9 -10 -4 0
-4 -2 -6 0
-9 -10 4 7 0
12 -9 -10 0
7 11 0
-10 -4 0
-8 -11 13 7 0
-5 9 3 -13 -11 -2 6 -8 1 0
-7 -12 -1 2 5 11 -13 0
-4 -13 0
-11 -13 -12 0
-13 -8 -2 0
-4 13 9 0
-11 9 6 12 -1 0
7 1 -4 0
10 -11 -7 0
13 12 4 -11 0
-12 -1 2 -5 0
-12 9 2 -10 0
-11 -12 13 0
-8 6 3 0
9 8 -7 1 0
1 12 -2 9 -3 -13 -5 11 0
-11 -2 -13 0
-12 -3 7 -1 0
9 -10 0
-27 -9 -20 10 17 0
-25 5 23 0
-19 12 14 -10 22 16 24 -3 -21 -9 0
-15 -17 -18 -11 -24 -23 21 -14 -16 -5 -26 0
-22 26 19 20 0
-1 15 4 6 -11 0
7 -2 -3 25 18 27 4 10 0
-14 4 -3 0
-17 -26 -1 0
25 20 4 -11 5 0
-13 11 22 7 0
22 14 2 0
18 4 13 -3 -20 -6 1 -7 0
-23 -1 -17 0
1 -27 -3 13 6 -8 -11 -24 -21 0
-21 7 -20 22 0
-11 5 -3 8 0
-5 21 3 16 0
20 -8 24 0
-26 -15 -17 -4 10 6 -12 0
-5 24 -3 0
17 -2 -20 -5 0
-17 16 -26 27 -20 -5 23 0
2 13 -8 0
-4 13 -6 0
18 24 22 0
-12 4 20 0
-18 -1 -22 -24 -4 0
21 2 -22 0
-3 -10 20 4 -1 -27 -15 23 0
19 23 8 -11 -5 -26 0
14 7 5 0
3 -12 -6 -14 0
6 3 25 -8 0
-24 -4 -20 -10 8 0
-7 -4 -18 0
-2 20 3 0
-17 -23 -12 0
-19 5 -17 0
-21 -13 -20 4 -15 0
5 -13 8 0
-16 -27 24 0
-5 14 15 13 -3 -1 0
-8 -6 -9 3 0
13 3 -5 -27 -10 14 0
19 25 3 8 -17 11 -7 0
18 9 19 27 15 -4 -3 10 0
3 20 16 -8 0
-21 -7 -18 19 0
-6 8 -11 1 16 0
-27 17 -11 3 -22 0
8 -17 -27 26 3 -2 0
5 12 -22 3 23 0
14 -6 18 11 -4 -15 19 0
-12 -16 0
-9 6 27 -15 26 0
-26 -9 22 0
15 -3 1 18 4 0
-12 15 -23 0
-1 15 -8 0
-7 -16 23 8 -4 13 -3 -19 15 26 -17 12 22 0
13 24 -5 0
2 -21 19 16 15 0
-8 13 1 -7 0
7 -2 17 0
6 19 27 -11 -8 -3 0
13 -12 -1 0
-11 -20 27 -7 12 -10 -9 23 0
-14 -2 -26 -18 -11 -23 0
12 -20 18 -17 23 -22 -3 8 13 26 7 21 -5 11 0
-23 2 -26 24 -25 -22 0
-8 26 9 0
4 -20 21 0
1 -11 -22 0
-23 2 -1 0
-1 25 2 -11 0
-8 -21 -10 -15 0
12 23 10 5 1 0
10 -24 17 -12 0
-27 -2 6 0
-24 12 0
13 -5 0
3 -8 27 7 20 22 0
-24 11 21 -1 0
-8 4 5 -16 0
15 -16 -7 0
-19 -15 -3 -8 0
25 22 0
5 13 -27 8 -17 10 -24 -1 0
7 -4 27 0
20 4 -15 0
-3 -15 -8 0
26 -17 24 16 -13 -21 0
15 -16 9 0
-27 -10 -24 13 -1 0
27 26 8 15 -11 0
22 -10 -2 -4 -20 0
22 -8 9 -25 -18 0
-20 24 17 0
2 -21 -4 7 -20 16 -15 0
15 -20 0
22 2 -7 0
8 26 25 -1 18 0
-6 14 20 -7 -22 0
16 7 -14 0
-16 -7 18 -14 2 11 24 23 0
-15 -8 -14 1 0
9 -3 -24 0
-10 -25 7 0
20 -12 15 0
-16 18 -21 0
12 -18 -22 -27 0
-10 24 -8 22 0
2 13 -18 3 0
