c seed 747327
c max width 29
c layers 15
c layer[0] = [1..13] w=13 v=13 c=51 r=3.92
c layer[1] = [14..28] w=15 v=28 c=111 r=3.96
c layer[2] = [29..56] w=28 v=43 c=168 r=3.91
c layer[3] = [57..76] w=20 v=48 c=203 r=4.23
c layer[4] = [77..87] w=11 v=31 c=114 r=3.68
c layer[5] = [88..104] w=17 v=28 c=104 r=3.71
c layer[6] = [105..131] w=27 v=44 c=184 r=4.18
c layer[7] = [132..142] w=11 v=38 c=151 r=3.97
c layer[8] = [143..152] w=10 v=21 c=77 r=3.67
c layer[9] = [153..166] w=14 v=24 c=75 r=3.12
c layer[10] = [167..194] w=28 v=42 c=144 r=3.43
c layer[11] = [195..219] w=25 v=53 c=223 r=4.21
c layer[12] = [220..235] w=16 v=41 c=154 r=3.76
c layer[13] = [236..251] w=16 v=32 c=116 r=3.62
c layer[14] = [252..272] w=21 v=37 c=151 r=4.08
p cnf 272 2026
12 4 -7 5 9 3 0
-6 -3 10 0
-4 -13 -5 0
-12 -9 -8 -1 0
13 2 1 7 0
-10 6 -11 0
11 -2 8 3 0
-6 12 5 0
-13 11 -10 -6 9 0
9 10 -7 0
-10 -2 -7 4 0
5 8 -9 -7 -3 1 -11 0
10 -2 0
-9 3 12 -11 -7 -5 -2 0
4 -11 12 9 -1 3 0
13 -6 12 0
2 -11 -7 6 -13 -10 1 0
-11 2 -7 -1 0
-7 -5 0
-3 9 -6 0
13 -4 -2 6 0
-3 13 4 0
3 -12 5 -9 -1 0
12 4 -10 -8 -6 0
4 11 -12 2 0
11 -3 8 10 4 -6 9 7 0
5 -1 3 -9 0
11 -10 6 0
-13 -2 4 -11 0
3 13 6 -8 -5 0
-8 -2 -10 -1 -11 0
3 10 -11 13 2 -8 9 -1 4 0
10 3 9 0
10 6 0
-2 -5 -9 -8 -10 3 11 0
8 -1 12 0
-8 -5 4 0
11 10 -3 -12 9 5 0
-9 -3 2 0
13 11 -1 0
13 12 -11 2 0
7 -4 10 -9 -12 -8 0
10 0
8 -3 13 0
-8 -12 -3 -11 -1 -7 10 0
-1 -9 8 -2 -13 0
-8 3 0
7 12 -3 -11 0
-11 -1 7 0
4 -8 2 10 0
4 9 -11 8 0
2 26 11 1 0
7 -24 -20 -22 0
12 23 -9 -19 -1 0
-23 4 10 0
-21 -7 -11 0
6 22 10 13 5 14 0
9 19 0
9 -18 -15 24 7 0
12 -6 -17 0
10 -25 0
20 15 -27 5 12 0
-11 9 17 21 -16 0
27 16 -5 0
28 25 -26 -6 0
-9 -28 10 0
4 -14 6 0
13 18 5 0
-26 -18 -15 -6 5 11 -10 -1 7 0
-10 0
-24 2 6 18 -15 0
-4 -1 -16 0
-14 16 -10 7 0
-5 18 -17 -14 0
-5 22 13 0
-24 -10 3 -2 21 0
-23 18 2 0
27 -6 -4 -19 24 0
-16 7 9 -5 0
-14 -10 -20 21 26 8 0
-11 -22 -16 0
-28 -8 14 3 2 0
19 7 4 8 12 28 0
11 24 -12 -10 -5 -17 0
-14 1 6 -19 0
-24 2 28 0
18 -6 -26 0
16 25 22 -10 0
15 -11 27 -8 0
16 -26 -4 6 -21 -15 0
8 26 -19 -5 9 -12 0
-21 15 -10 0
23 5 25 -17 28 0
-16 -5 -17 0
-14 7 9 22 -20 -19 -27 -10 0
7 18 20 6 0
-19 10 -12 0
4 22 -19 -9 -11 -12 0
-7 4 5 11 0
5 -13 25 -15 -16 12 23 0
-8 25 -28 -16 0
23 -6 0
-25 22 0
8 -21 23 -9 -2 14 0
6 15 9 0
-1 18 26 -21 24 -14 0
-11 -7 -26 0
-19 -1 2 -27 -23 0
-15 25 0
-15 -6 -17 0
7 -23 -3 8 10 0
-5 -26 -14 -15 19 -22 0
18 7 21 -16 -2 0
-9 22 26 2 -4 15 0
22 -23 13 0
2 -7 -27 10 -4 0
23 -5 0
-1 -2 11 -8 0
-5 -12 -4 -14 -21 -23 0
-11 -4 -3 25 10 0
26 27 -2 0
9 28 2 0
10 -23 -15 0
19 21 10 18 24 -26 22 0
15 -4 -6 0
-14 19 8 0
-18 4 -15 -3 0
-5 27 -3 -16 0
5 20 28 -6 0
25 -22 7 0
25 -7 -4 0
-25 -9 -17 -8 -23 21 19 -14 0
21 10 6 28 17 0
-23 11 -1 -2 -13 -5 0
26 -12 -9 3 19 18 -25 0
22 10 28 -20 0
-14 -8 -13 0
2 -18 4 0
-12 1 -10 0
6 2 24 0
2 10 -28 19 9 0
23 2 3 0
-23 -1 9 3 0
11 1 -3 0
19 12 20 -28 15 0
-25 -22 -9 20 7 -28 0
20 12 -22 16 0
-27 28 -2 0
13 4 17 -16 0
-5 -10 17 0
11 4 -27 22 0
-21 -9 20 -13 -11 3 -6 -25 -18 0
-24 11 -17 -9 -21 22 -3 0
-27 26 -14 -21 0
28 27 -16 0
3 -21 12 -11 0
-22 9 -24 -26 -20 0
16 28 23 3 0
6 -16 24 -13 -28 0
-1 -4 -5 26 -21 0
-21 -15 18 7 0
-27 4 17 0
-27 -13 -47 -31 0
-52 -27 40 53 10 0
-33 55 52 -7 5 -26 -6 0
9 -51 -17 46 4 -55 0
-36 47 44 0
23 -56 26 -8 -37 0
-49 32 -42 28 -30 -38 -14 0
51 -44 -48 -15 0
-43 5 3 0
11 -29 -46 0
19 -54 2 7 10 16 -18 0
-25 -26 30 49 0
18 39 -32 23 0
33 -4 1 5 0
38 10 26 0
-35 11 4 0
-40 -34 27 0
-53 2 45 -39 0
29 -6 35 -9 0
21 -2 -45 -14 0
-25 14 -5 0
-13 36 -4 0
-12 3 -4 16 0
6 5 -20 54 0
34 -18 -24 50 37 26 -12 -41 21 0
56 42 20 -5 0
4 21 15 0
-50 1 -6 -17 31 41 0
19 48 43 35 -37 -40 0
32 -11 -5 55 0
18 -5 -44 7 0
12 11 0
-48 -43 29 0
-17 47 56 0
-51 1 -32 31 18 0
-27 -50 -11 21 39 9 -31 0
54 -12 30 19 -16 0
-48 29 -20 18 -8 0
20 -56 2 -36 0
-50 -45 -46 -29 0
33 -28 -18 31 56 0
-21 28 48 -25 -8 -50 -33 -4 0
15 9 34 2 -36 0
10 -19 39 -23 -46 0
16 14 43 8 -12 0
-56 -15 -47 10 38 -26 -34 16 30 2 36 46 0
-18 -12 2 -53 -37 45 0
10 23 -50 -36 0
18 -23 -31 56 0
-33 45 -34 7 0
13 30 -4 31 -42 -46 0
-37 -55 30 0
14 22 3 -7 -4 -6 36 0
-46 -6 22 -31 -41 47 -15 30 0
-33 -36 -8 -52 35 0
23 37 -13 35 -52 -3 27 24 -2 36 0
40 22 -26 35 0
33 -10 -9 46 0
-11 -23 39 56 0
14 -55 51 -52 0
53 -6 3 36 0
9 -33 21 4 54 50 -37 22 0
56 -8 -20 53 -1 -6 -2 0
-8 -53 -23 37 1 0
37 6 -39 4 0
-8 -45 5 -23 0
36 27 33 -37 0
-24 38 -30 0
42 -56 8 3 0
1 -11 45 0
56 25 19 29 0
-49 -47 0
10 15 -37 -53 0
8 -5 -16 11 0
6 -34 -39 0
5 -51 48 0
52 -46 36 0
51 28 43 20 -5 0
-4 -51 -21 0
-38 4 -12 33 0
30 -6 40 -27 0
5 -41 23 34 10 -20 0
-18 21 43 14 -41 0
-40 8 56 28 0
2 -8 46 31 49 -27 -53 48 30 0
15 43 4 -6 31 0
18 -47 7 -13 0
-32 18 -52 -54 0
-36 19 -34 46 0
-14 -37 -17 -38 0
6 -44 12 51 0
-22 -27 2 1 -19 14 47 0
-1 -26 53 0
27 -56 -37 0
-10 -43 7 0
-36 -47 40 0
-40 13 -16 -41 29 0
15 6 -28 -53 -50 0
-54 -19 49 0
50 23 -37 -25 18 0
39 -48 56 -24 0
38 -4 -49 0
-48 41 -26 3 0
36 -56 37 -24 3 -22 -1 0
13 7 45 0
-29 14 48 0
-35 5 48 -49 -28 24 0
8 -49 14 -3 -37 19 6 -43 0
-54 -32 -27 33 0
-38 -47 -52 -9 49 -8 -7 -25 0
-33 -26 -24 -13 -37 -9 55 -17 47 30 19 -2 -35 0
-8 -10 -37 51 -39 19 -25 -26 -50 1 15 0
-55 1 -7 12 0
46 45 47 0
2 -56 -28 0
12 -21 -37 1 -55 33 0
3 42 -23 35 53 -45 43 0
6 22 24 -43 -11 1 0
-55 18 -22 -29 12 -21 -35 33 0
-4 35 -38 22 54 -9 0
17 -44 -30 0
-33 8 6 -2 0
-4 -5 18 10 11 32 0
-15 -52 33 -32 0
-48 3 -29 -18 36 0
48 -28 -10 0
-31 -35 -32 19 0
-49 40 8 5 50 -1 0
17 -24 8 47 0
-28 31 41 39 55 -25 -4 15 48 6 -36 -37 -44 0
14 -37 41 28 0
-39 -28 -16 -1 -52 0
24 -35 -41 0
-41 12 -45 0
-24 7 11 0
-28 37 42 -7 0
51 16 22 24 0
6 27 10 55 19 4 47 0
-10 25 -9 -49 32 47 18 -48 41 53 0
-50 -31 -2 -5 0
-26 41 -43 38 9 29 0
37 18 25 -42 31 -34 -20 32 -12 1 40 -45 29 -52 0
22 -44 0
18 42 29 0
54 5 11 -46 -3 0
-26 46 36 6 0
-48 34 1 26 -27 0
43 -33 -5 49 0
-30 -32 -31 0
8 2 43 -25 -16 4 -52 0
22 44 36 39 0
30 53 -12 40 49 50 3 0
-43 8 -5 54 -1 -24 -48 39 -51 13 0
47 -46 11 0
39 13 -52 0
13 36 -33 46 -20 50 0
-41 10 9 0
-9 -17 -50 0
13 45 3 -56 -40 0
2 18 28 -44 -46 -4 42 0
-46 -3 55 -5 20 -56 42 -19 11 0
-27 -25 10 0
-2 24 -8 -43 -10 0
-1 36 26 -35 50 8 -10 0
-41 53 -1 7 48 0
-55 -14 -8 1 -19 53 38 43 11 17 -56 0
-56 -25 9 0
-21 18 14 0
20 13 0
-58 59 19 0
62 12 -72 -76 28 -65 74 75 0
23 17 -19 -75 0
25 53 -69 -61 30 37 0
-62 31 -68 45 0
-67 -15 61 -12 -63 -5 -57 0
73 -44 23 0
46 -56 -45 -73 7 11 22 29 -60 70 39 0
-74 66 65 -64 1 0
-16 26 18 5 51 56 64 0
-36 67 63 7 -66 -37 0
-71 -35 52 0
25 8 -70 57 44 45 43 72 0
-4 60 71 58 0
20 -3 68 -59 53 69 0
-38 46 9 3 76 -23 8 0
60 63 59 69 0
31 -67 -58 73 30 48 -25 0
43 27 1 0
73 -59 15 0
-11 15 45 66 0
37 61 -31 19 0
59 -66 58 17 0
72 -59 61 -66 -1 68 0
-71 -51 1 -72 0
-66 -1 52 69 23 -65 -62 26 0
-67 -46 -72 0
-39 -1 -73 0
-52 49 66 -50 -69 32 0
-7 -58 9 32 0
74 17 33 0
-70 -72 -53 30 43 76 1 58 4 -68 59 0
22 -4 -51 -66 0
71 -64 -65 76 0
64 49 -67 0
48 47 -56 59 2 0
75 -66 74 0
-69 -34 54 76 71 0
-71 1 -70 68 -31 -76 74 0
-65 -43 74 24 -70 29 -73 -7 -53 76 -67 68 -63 48 0
-11 60 -72 -49 -15 -59 46 0
69 -24 -59 -60 1 25 -39 -31 0
-34 -39 24 74 0
37 -62 -74 -72 47 50 0
14 26 -3 76 0
-45 -58 -18 0
-4 48 69 51 56 31 0
-57 76 -50 53 0
28 14 -4 -44 0
-1 -14 65 63 75 0
-3 75 -43 2 0
-59 -44 11 63 71 68 73 -7 0
17 65 -22 -61 25 73 0
67 -39 -65 -73 -61 0
-68 76 60 0
-58 -72 0
31 2 68 67 -6 -33 0
42 -35 -59 -27 0
-53 -69 75 0
-69 62 -19 0
9 68 -60 -53 0
-32 39 -73 0
-58 69 -63 0
-29 -9 69 62 0
-51 12 43 0
-75 -29 -59 -12 64 72 0
67 63 2 0
-57 24 -61 -66 0
59 -57 67 -74 -61 -22 19 -1 36 0
-20 66 48 0
76 56 -5 -72 -23 -27 63 -40 44 6 -73 -51 -69 58 0
-62 64 63 -25 12 -70 65 38 -57 17 0
-26 59 73 0
-33 -69 -70 0
13 -63 41 76 57 -5 0
53 9 31 68 76 32 -69 -11 0
68 -73 17 0
42 66 68 16 28 36 59 75 -39 0
-69 33 61 0
64 9 57 23 0
19 -76 -58 0
70 6 16 0
-58 -62 -28 0
-5 52 66 -38 0
-69 -36 73 50 16 0
56 -67 47 0
-55 -59 -76 57 73 -72 0
-53 48 54 71 0
-13 58 -5 63 75 0
-67 10 58 0
-63 19 71 74 61 -4 -26 72 -12 47 -70 0
-18 -74 -40 24 0
76 67 72 34 0
-65 -53 58 69 0
-57 59 -64 0
59 58 -60 0
-61 76 0
-50 13 -1 -54 61 -37 0
52 71 -11 -59 0
8 42 -33 46 60 -61 0
67 44 -58 65 0
-66 56 -20 29 -63 -7 0
-12 73 -65 -76 32 -71 0
-64 57 71 67 -69 58 0
-6 -29 73 26 0
-64 18 11 8 71 75 -70 0
42 39 70 76 62 -50 -38 0
-70 -55 69 -75 0
16 29 -8 0
5 -72 -48 75 0
67 30 70 28 0
-57 -23 52 72 -44 0
17 -45 5 0
-74 -75 -54 0
25 -62 40 64 -69 0
57 -59 65 70 0
-70 63 -55 -74 -71 11 0
71 21 -61 0
11 15 69 -52 -41 74 42 32 0
-54 -59 -4 -61 0
-51 59 -11 0
62 27 5 -76 0
-71 41 16 0
3 -20 5 43 -9 -31 32 70 0
-49 13 45 0
40 -52 8 0
71 -8 9 0
-58 69 75 0
67 -73 49 -58 0
71 -75 -38 64 -74 34 0
-34 24 37 0
-58 -6 25 0
-36 -5 -69 0
25 -48 73 -1 -69 20 0
-58 -69 26 10 56 0
-73 -12 -58 55 40 0
57 11 64 0
-52 -74 -47 -75 58 21 -69 64 0
-50 59 -66 -8 -3 57 27 0
69 -1 -2 26 19 0
-56 -58 76 59 -1 66 -62 6 69 -30 -41 74 0
59 51 20 -29 58 7 47 -30 0
-38 -59 68 72 66 58 9 74 0
-46 -35 -12 -76 0
34 -57 -73 64 -60 -62 -35 0
71 61 23 0
64 52 -16 -48 0
26 69 7 0
-10 -72 22 3 0
-73 -65 -70 -62 -5 0
66 43 17 0
-74 -7 -36 42 -60 -21 58 0
61 -31 30 -32 -57 0
-23 47 68 -62 -63 76 0
69 61 -31 -63 0
-39 67 -56 59 76 70 19 0
71 72 -43 33 0
-29 63 -68 0
-1 64 -60 -66 0
-62 -30 12 76 -75 0
-10 51 -19 6 0
74 -59 72 68 65 0
-1 -71 58 -30 0
-19 -42 -69 0
-71 22 35 72 0
-47 -40 65 -5 -38 63 1 54 0
66 32 63 0
-6 53 74 0
40 71 25 39 37 0
-25 16 -69 0
13 -68 70 62 42 -66 0
-64 -63 22 -60 0
29 1 -54 -67 0
4 -42 8 0
-73 -59 -71 0
60 47 -4 0
74 -61 34 -55 -58 0
-75 -39 73 0
14 -35 -49 -5 0
-63 22 24 -32 -65 -70 0
-60 62 55 -59 58 -51 -22 -8 0
25 -60 -8 0
-32 -60 61 0
5 29 64 74 67 0
-10 53 -22 73 -72 0
-26 58 -71 62 0
-27 -65 57 24 0
59 64 -40 -75 70 0
26 59 -63 34 -41 0
-37 49 -73 4 -24 -75 0
48 60 49 63 13 33 75 30 69 0
-41 -75 -51 -2 44 -1 0
16 53 18 1 -17 -44 -5 -66 0
31 -71 -59 69 -65 -64 0
-20 70 75 66 0
61 -67 70 -14 0
54 61 2 72 57 -76 0
26 -63 59 73 -69 31 0
33 67 10 75 -12 -74 -1 0
-48 26 67 65 71 70 0
-72 -73 67 63 28 66 0
50 71 -67 -7 0
81 -78 -74 0
-80 62 86 0
75 85 80 -67 -79 56 82 78 0
77 84 -82 61 -56 62 -24 0
-76 -87 31 -44 83 63 0
-85 71 -86 -84 0
-83 -81 -76 0
25 59 35 -77 0
79 17 65 0
-73 87 59 -86 17 -66 74 0
82 21 84 -36 0
-6 80 -81 0
-80 -87 -44 0
59 -77 -81 -73 -65 -51 -79 -85 0
-81 -65 -57 0
-40 47 -65 58 0
59 86 78 0
-64 46 66 -79 0
2 78 81 -1 0
-45 -58 51 0
60 81 -78 -85 -43 64 42 38 0
-5 7 80 -68 -86 0
83 61 42 79 82 -66 0
-3 -79 -87 0
74 -6 -77 0
-31 81 -74 86 47 0
-65 -10 87 79 9 -53 0
-87 79 80 0
-71 81 8 0
-54 -71 86 0
-63 55 -86 76 74 34 39 0
-74 87 64 0
78 -87 -79 0
-83 9 70 81 -79 41 -62 0
84 -63 81 -71 79 34 0
85 81 -86 -5 0
-40 -74 83 -15 -85 0
-85 42 78 0
-56 -62 86 -81 0
65 -86 12 69 -45 0
-68 -82 -61 66 53 0
25 -12 77 0
4 64 85 0
37 80 -83 82 -12 68 0
-82 80 77 86 59 0
45 25 73 0
-1 71 83 85 -58 78 79 8 0
-49 57 -87 86 -1 0
-82 -85 -68 65 -8 0
84 -4 81 0
46 63 59 0
-64 15 43 86 63 84 -57 -79 80 -52 0
81 -84 0
-57 84 -87 0
19 -81 -61 0
-83 31 10 -80 82 -87 -2 19 0
78 81 -86 -26 -66 0
-77 -2 82 0
-18 81 -9 78 45 0
-81 -86 82 10 63 0
-79 85 80 84 62 26 73 2 77 71 55 58 -82 81 0
66 -6 67 0
-74 81 -87 0
-84 87 79 0
80 78 -81 -31 0
-62 -66 -4 86 0
-77 59 -83 0
-29 -79 80 0
83 -63 48 -78 0
23 -83 1 81 -87 -79 0
-64 29 -74 0
-31 80 84 75 -6 0
-61 -53 85 84 -79 -32 83 -81 -59 -87 -82 0
81 -86 -12 0
78 -80 -55 44 37 87 85 53 -34 82 0
-87 -20 84 0
59 79 32 -85 87 76 0
70 78 25 0
-86 -22 81 -9 0
59 75 -64 -81 87 9 0
81 -17 -85 -82 0
-79 -85 80 49 84 0
-70 -33 47 0
36 75 -85 -83 -78 41 -19 0
-81 78 -47 17 0
81 71 43 77 30 10 -80 0
-11 29 83 -79 1 -82 0
85 -63 77 0
84 -65 -81 78 0
-82 -78 -77 -81 -72 -76 -83 0
-60 84 -17 86 -23 35 79 0
-87 -84 77 80 0
13 -86 82 -65 -78 -76 54 38 74 -79 12 -81 87 -1 -44 0
86 -80 79 -41 0
31 -79 -63 0
-47 -79 -87 32 -86 -78 0
-79 -24 60 0
-85 78 -59 -64 -83 -21 0
-83 -37 10 0
-31 -71 -78 77 80 81 54 83 63 0
-43 84 64 0
-45 -63 -81 -49 -82 -66 -67 0
-81 -49 80 77 0
80 -62 -21 -83 81 76 -85 0
-75 86 34 63 -80 -65 -82 79 40 -41 4 0
-78 60 -40 0
-85 36 -41 -76 -74 57 0
-13 -61 80 0
30 -16 67 0
87 -81 -69 0
79 -73 67 0
80 -86 87 0
-82 21 -36 0
-40 21 81 -59 22 0
-100 -95 -69 -102 -51 -83 0
-90 -89 98 0
62 104 -92 0
102 94 -101 57 -78 -99 82 -85 0
103 -83 91 -86 -81 0
97 50 -22 89 -104 -103 96 -87 -91 100 90 0
49 -55 -81 0
-2 -78 -98 0
99 29 88 4 93 95 -96 -6 0
-88 92 80 101 83 -97 85 54 -94 0
-73 64 -87 0
-87 77 -93 0
64 -89 -103 0
-94 -78 21 0
-88 -93 91 0
81 90 88 0
88 58 95 90 -92 -68 82 0
100 22 -88 95 -85 0
-55 30 25 67 0
15 -17 -89 -104 -82 -96 60 0
-93 -88 86 -98 -84 0
-80 87 -99 0
88 -90 92 0
55 82 22 0
5 -88 75 71 95 77 15 100 0
78 90 104 0
-95 -83 -99 0
-85 -102 -84 0
-85 103 86 80 0
92 61 94 78 95 64 99 -77 -85 0
-91 -103 83 0
68 -93 104 -70 0
-77 -90 0
-97 100 -98 0
96 63 82 0
96 -91 -68 0
83 88 -73 -23 -82 -6 92 0
-81 91 99 0
-78 101 -79 -94 0
87 -84 81 0
-102 31 -69 0
104 61 -82 0
-94 -90 -78 104 103 88 50 0
-100 89 -71 0
103 -83 77 99 0
-95 98 -15 0
-100 54 -97 90 -85 86 0
102 -89 -36 101 -85 35 0
35 95 84 83 0
96 94 -92 101 77 86 0
96 -100 -80 90 88 98 84 0
92 -101 102 0
28 -79 49 0
74 49 -100 61 90 87 0
89 -104 90 85 15 -79 93 66 0
-102 89 44 39 0
-71 61 -92 82 0
63 77 90 -98 0
-83 102 95 88 104 79 13 -5 93 -90 80 0
98 97 85 0
94 96 -88 0
-81 -97 73 61 0
97 85 101 0
84 -98 -100 -94 -95 0
-31 -80 -91 -78 -86 0
79 -57 -91 0
-89 -76 102 99 0
62 79 97 25 69 0
78 -99 97 94 -43 61 0
-67 -8 75 0
36 -79 -95 0
-86 -103 82 -76 -92 55 -102 101 -100 0
93 -101 103 -78 0
-4 -101 -96 0
-2 -91 103 -100 0
-98 -62 0
80 -97 -56 0
-97 82 0
84 -96 32 73 100 92 97 99 -89 0
-94 103 3 -80 0
-79 -66 0
79 -97 87 -94 78 83 0
95 -89 -96 0
82 -80 100 -90 -45 -101 0
-83 -63 1 85 0
-99 95 -87 103 -81 0
-94 93 -98 92 -77 0
95 96 -99 0
-58 103 -17 0
-81 -9 -93 -100 0
-77 -5 88 0
-104 64 -89 92 29 0
-94 78 -82 0
-89 -79 -101 97 -86 -102 0
-92 -79 -98 -74 -85 -94 -53 0
-71 91 103 0
86 -84 -4 -94 0
-62 93 -92 0
11 98 -104 0
-76 -100 104 0
104 100 -94 32 0
-40 104 81 18 0
-84 81 97 0
96 -73 -104 100 103 -94 0
125 -109 107 0
100 -112 120 29 123 0
-90 -88 29 67 95 -93 -102 19 -77 -107 0
-88 -97 105 -123 92 0
86 -111 126 128 13 113 14 -96 0
-121 -105 21 -128 0
111 -88 86 94 -103 -122 99 -101 -82 0
108 81 -118 116 0
-119 -15 60 0
88 -117 80 104 110 0
118 85 -91 0
106 122 119 0
98 127 109 75 -130 -81 73 0
-89 -127 -95 -91 -68 129 57 93 92 -101 -120 0
-94 130 -83 0
96 -110 99 121 0
115 -85 -126 0
-96 83 -95 -114 -125 28 0
93 112 -113 92 79 -106 -129 80 -91 0
114 78 117 98 0
-131 89 0
-116 -39 131 0
-108 -115 -124 60 0
124 -131 -129 0
56 -104 131 -100 -103 0
1 -107 -77 124 0
-88 123 -7 -111 78 92 0
111 118 123 -115 -8 108 -98 0
-127 -109 1 99 0
120 -85 62 79 -42 125 0
96 -122 -102 100 0
116 -81 -126 -78 106 -104 124 -121 0
127 92 -33 -104 -103 -101 -116 -97 -107 -123 124 -96 0
117 -36 124 -74 -104 0
118 93 96 0
113 119 128 120 -105 77 126 -88 118 -124 102 0
67 -94 -90 0
115 -92 108 103 94 112 0
-98 -121 104 128 119 129 0
-105 -106 101 112 68 -104 -82 -88 0
-122 110 114 69 103 -112 0
119 -100 -85 84 -116 0
-70 68 -78 0
97 -116 -117 79 90 -107 0
-87 60 98 131 0
-104 82 73 0
-131 -114 -94 -113 0
-105 -66 128 0
-114 80 127 0
-92 111 129 0
-104 -106 16 0
104 124 -79 0
-97 90 -131 120 94 -46 -73 -124 0
-8 94 123 0
-90 -82 0
120 -108 -110 119 121 131 0
72 59 117 0
-127 91 -108 0
119 84 131 105 118 -130 103 -129 83 -12 108 -92 114 -91 125 0
100 97 -107 -99 -60 0
103 -80 78 -112 -99 0
-113 81 -95 -111 123 0
120 -113 116 103 -24 130 -122 0
-117 122 109 0
78 111 58 0
96 90 111 -92 -70 108 -116 0
109 -107 -98 -110 119 -67 117 74 115 0
-62 -99 -107 -127 0
-129 -128 88 80 0
112 -124 60 0
76 -69 105 0
98 80 108 90 0
-128 -47 99 -91 0
71 124 -126 0
-103 -119 14 100 0
-57 110 -86 0
86 -35 127 -40 110 -88 11 129 -100 80 -96 0
62 112 120 0
110 -129 -117 8 0
124 -120 -112 106 -114 0
3 58 -96 0
118 -23 -115 -82 0
-130 88 -105 0
91 -80 -123 0
-117 89 64 0
126 97 -105 129 0
-89 106 -122 0
127 101 -87 88 -93 106 -115 124 125 0
11 -122 -95 0
-95 -125 89 0
-32 114 107 0
98 -82 -34 88 -108 105 -111 77 -125 106 -87 -45 -96 99 131 0
-114 -11 -113 0
33 -100 -126 107 -124 -116 -125 41 89 -111 0
-98 111 -66 0
-123 -97 82 90 0
-87 -125 107 0
120 129 114 -107 -89 94 0
-120 108 -130 0
105 -94 -90 0
-54 -129 -82 70 0
-107 -131 85 86 -74 0
-87 86 -124 93 79 130 107 0
97 109 -96 71 -128 0
98 92 -104 0
90 3 -97 0
-110 -109 -111 0
-92 110 -119 -126 -122 83 -94 -87 0
-97 110 -117 -59 0
-125 83 84 115 0
114 -37 -16 120 3 129 4 0
-119 -115 105 0
125 -117 112 121 0
-66 -79 -44 30 -127 124 112 -77 0
80 -111 20 0
126 122 -129 98 -118 0
-127 -120 -116 -16 0
-69 112 78 0
-116 -80 89 95 93 -127 60 -101 82 -121 -97 0
-102 123 103 0
120 -114 65 0
112 -83 10 0
-92 -121 -116 119 0
91 88 127 0
128 -105 91 0
98 120 -117 100 0
-17 -93 115 63 65 -81 -127 -57 92 0
-127 -129 -79 -85 80 0
-95 -40 0
103 94 124 112 -106 116 0
-85 -119 -111 0
-92 -120 -94 98 90 -114 0
22 98 123 -125 0
120 113 -128 84 -107 0
94 -89 -121 -99 -77 113 -61 -96 -98 0
-22 98 -120 -65 80 131 -122 0
-75 -115 -109 92 107 0
-126 46 -107 -128 0
116 -83 -126 121 0
-88 -129 125 -40 0
129 97 -104 -111 0
-70 -111 -113 0
-68 -96 121 63 -81 0
-110 -66 -29 0
123 115 120 126 -61 94 0
-81 -56 -121 86 -99 0
131 -63 -83 0
130 -107 -67 -123 118 96 103 114 -126 0
47 -90 -74 0
39 89 -124 126 -54 -92 80 -117 0
-84 -92 -102 -105 -88 98 -90 0
105 102 -94 109 -114 130 -127 0
69 100 91 -86 106 116 -114 67 21 65 -120 112 0
-88 -97 -118 0
117 -76 -110 106 0
73 65 -86 78 109 127 117 0
118 -84 -128 64 114 88 0
92 123 106 120 -121 -127 0
110 116 104 108 113 0
93 121 -2 0
114 -76 105 -118 55 -112 -120 -130 0
131 -122 115 0
107 111 -127 121 -11 112 -117 -95 0
-114 -122 -83 0
-77 -83 -125 66 0
123 99 -119 0
131 -5 -120 -126 108 0
99 105 121 0
-122 -121 -112 0
-126 -78 22 -77 98 95 -131 -120 0
-57 120 94 69 84 97 82 -111 124 131 0
128 118 108 -104 106 0
-102 117 116 -84 0
96 -6 91 119 71 94 105 44 0
-107 115 112 0
130 33 129 0
97 -98 -84 124 44 0
-111 67 126 -40 -87 99 -82 95 122 -54 -22 0
102 110 -119 0
-86 122 -13 118 0
-29 88 -85 -112 -118 0
84 5 -129 -127 0
-94 -106 114 0
-114 107 105 59 129 -88 0
135 -136 104 -137 89 0
-104 -139 -141 -77 -133 0
-140 133 101 -132 0
117 141 139 98 -135 123 134 0
-99 -87 -134 0
103 132 136 137 0
-118 -142 -112 111 140 0
142 103 43 -82 0
138 -123 88 0
-129 -61 -138 100 139 -136 -137 142 0
117 139 136 0
-133 -105 74 -95 0
133 -38 -129 -134 0
92 -137 -127 0
46 126 138 117 0
-133 -81 124 -135 0
-83 -135 -87 0
-142 135 138 132 134 0
-142 68 141 131 63 140 -115 124 0
135 -141 131 -8 0
-86 -136 140 109 0
-137 -133 79 -105 -103 0
-85 -133 119 0
-132 105 -135 0
104 140 -136 -142 119 0
-132 -106 -140 136 0
135 -96 94 0
141 -109 -125 0
54 93 -140 -137 124 0
-133 96 135 138 -142 0
135 -138 -139 0
78 105 126 0
129 -98 60 -59 139 -133 0
128 103 -139 129 -70 -126 0
92 -140 83 142 -116 -136 0
-95 -135 137 113 0
-135 -125 -99 -80 -77 -142 133 0
-104 -100 -140 -115 -42 0
117 139 136 99 114 0
81 -138 -107 140 135 0
-116 -135 -136 80 0
13 -137 99 0
33 -132 141 0
-104 -116 118 141 135 100 79 -110 -81 0
-110 -137 -138 130 -142 0
141 -100 -142 0
138 -113 -134 -119 -128 0
100 -131 133 136 0
-137 -131 -95 132 -97 -92 -134 -135 -78 101 0
95 84 -117 -101 105 92 61 0
130 141 -135 11 123 139 0
-141 136 0
133 142 138 50 -112 120 -109 113 0
59 138 132 0
-110 -132 142 0
-142 131 138 0
-137 -133 135 0
-131 -141 -135 -88 0
142 -80 139 -114 107 -130 0
-132 -142 -128 0
-137 -122 -134 87 142 0
141 96 140 117 136 127 -133 132 -119 122 0
-124 96 -106 -90 122 139 133 0
-100 -136 -138 -118 -129 0
-140 111 -138 -81 0
-136 129 88 122 0
-81 -132 -101 119 -139 0
107 134 -123 117 0
-124 -132 125 63 127 116 133 32 0
-135 -141 138 0
-139 -96 -104 141 136 86 -107 123 0
-133 -121 139 -138 0
-51 -140 -139 0
-140 -133 -83 0
-43 123 -137 -132 -124 0
-132 105 -138 0
-130 141 110 -129 138 -134 -96 140 -84 116 139 0
140 129 -138 -84 0
140 123 -79 0
118 134 132 137 19 0
-141 130 129 -83 0
-124 -135 132 0
-140 100 -142 0
133 -127 81 0
106 -139 -99 0
139 -132 77 0
-82 129 -119 141 0
105 -86 139 -138 136 0
141 -114 128 121 0
-132 -88 114 -133 134 0
-139 -136 131 -127 116 142 -124 0
132 92 -139 133 -123 0
-134 -141 -88 125 0
85 -132 -138 137 -107 0
138 140 -104 142 0
-88 138 -139 0
-43 136 110 0
140 -135 137 -133 -134 0
88 134 -141 0
-90 -54 139 0
-87 133 138 92 137 139 -142 113 134 74 -141 121 -107 0
-118 -135 -138 0
136 86 124 125 115 116 0
-135 -123 139 0
137 -136 0
-36 138 -77 88 -122 -109 0
-134 -114 0
127 111 135 107 -128 0
139 -136 -134 0
136 -80 -139 46 95 142 0
97 139 -103 137 0
-137 142 -136 79 0
-135 -138 -93 137 0
98 141 -139 128 -138 0
-136 88 -142 0
87 24 105 0
100 -135 -93 130 142 114 0
-116 85 -132 139 0
140 106 45 -37 134 0
-126 118 134 -122 128 -95 -135 132 0
-142 -130 109 108 75 0
-133 -115 94 0
113 139 -80 0
-141 -134 -86 0
134 85 -124 -88 -137 132 -112 -129 -92 -93 86 136 0
106 -98 -122 -141 108 0
-122 142 94 -21 0
136 107 -135 0
139 125 86 -140 113 0
-141 139 124 0
135 -60 -134 0
135 93 58 142 0
-131 -141 0
-136 137 112 -133 0
136 -121 -134 -117 138 0
-134 -136 83 0
132 136 101 0
-106 -136 -93 -101 139 70 0
-97 136 -118 0
-96 97 87 137 0
-94 105 -141 116 136 -134 0
-81 -138 135 89 -79 110 134 -107 0
-110 -79 84 0
141 56 -127 -92 90 0
-138 134 132 141 116 0
-135 133 140 0
-130 -117 -134 0
-109 -117 133 -114 0
140 -101 -72 0
-115 140 -58 -78 139 -93 -132 -131 -133 -113 98 -117 -110 -102 -135 0
135 110 134 139 -142 0
-151 -152 -145 0
132 -144 -147 152 0
-130 -143 97 -134 0
149 136 144 147 0
-148 -135 141 142 0
136 148 -112 -121 143 0
-146 -131 145 0
-78 117 150 0
-150 -110 -139 98 137 -149 0
-128 -135 -136 -134 0
138 146 151 0
-16 -144 150 0
140 109 142 0
-149 -95 147 110 148 -91 0
134 15 -145 -102 150 0
-6 135 -104 133 122 150 148 -149 -85 0
-123 -115 -143 -149 117 -151 -152 109 126 0
-99 102 138 0
143 148 145 0
-129 142 -5 147 97 0
-144 113 133 147 135 149 -136 142 0
147 -143 145 0
-132 147 146 116 74 150 89 0
-143 59 132 0
81 -103 130 60 0
73 138 -144 132 0
104 151 138 -143 145 0
146 -143 -151 0
87 -146 -123 -144 132 147 -96 -148 -151 152 0
90 138 -145 140 150 0
141 -147 98 135 -103 -151 -140 136 148 0
-150 -151 148 -134 0
-101 -144 145 -143 -141 0
140 150 133 0
-87 -149 91 92 0
89 -116 145 0
-133 -145 -152 -83 0
-109 145 147 136 0
-138 134 145 0
-139 -123 151 0
98 138 -148 0
72 135 150 -125 -133 144 0
-146 -142 -143 0
-144 -146 -149 0
-138 -132 0
-148 128 -151 -133 0
151 148 150 -110 -141 139 0
69 -148 50 -143 121 0
-143 151 0
-78 -134 -121 -139 0
151 146 -145 -87 143 -149 -140 147 0
150 -98 -140 146 -144 134 -148 0
-42 79 -148 -150 151 -141 0
132 -152 143 151 0
-91 144 0
-133 -118 100 0
-152 0
-144 151 -146 -139 -104 -138 129 0
123 -138 126 0
147 137 133 104 -103 0
147 -152 150 142 151 0
135 -152 -137 0
-142 -141 116 -146 144 0
146 -144 133 -110 -143 -142 148 97 -77 91 135 0
94 -144 -143 123 0
151 -150 143 0
-139 151 143 144 -145 -149 0
135 -147 95 140 -133 0
-149 -122 -152 121 0
144 -20 -137 0
143 -151 116 146 -152 -148 144 0
-143 106 -94 140 -130 0
113 -106 139 0
125 92 103 62 -141 0
-142 -94 -127 0
152 148 -151 0
135 -146 -147 144 0
-144 60 -159 0
164 133 147 0
151 -153 -103 0
-144 -166 80 -83 159 0
-161 100 163 152 0
-82 -149 147 166 101 0
147 154 -162 -160 0
-149 -155 158 107 0
165 143 145 -158 -148 149 0
-104 -113 -165 90 0
-148 -152 -163 0
160 -154 156 0
-149 -164 -156 -144 147 157 0
-27 -146 162 161 0
155 153 144 0
151 -157 159 0
-137 142 -151 143 0
123 -148 -145 143 0
145 164 109 122 -149 153 0
-151 -150 127 0
-163 132 153 0
-157 147 121 0
155 151 -164 148 0
161 163 153 152 122 -166 0
-163 146 161 0
-140 144 -166 0
-163 141 -151 -158 -157 -150 0
164 -156 -136 -134 122 114 -146 152 -151 -137 141 150 -148 -140 0
-136 -166 0
142 166 -60 -82 -146 -144 -148 152 -160 0
-166 162 161 158 -146 0
89 -160 -136 0
160 -156 -145 0
-151 -154 157 164 -149 -150 0
155 -134 -103 -157 128 -80 -158 -110 164 100 0
149 163 -144 0
158 -164 -160 148 -153 -123 166 -141 -104 0
160 -153 -126 0
165 149 -152 0
144 -142 162 0
-117 -142 137 139 -149 -136 161 -162 153 -146 0
145 -159 -155 165 -160 153 0
-153 156 -143 0
159 -138 141 158 89 146 164 0
-107 -146 -156 -162 158 -159 -153 0
-154 -137 -96 0
104 152 -153 136 0
156 -160 -151 -165 0
-152 -154 -160 165 0
152 160 153 -147 0
-136 145 165 -154 147 -156 155 -138 -137 0
-119 -152 -147 -150 164 0
-118 -74 165 0
-155 -158 82 146 0
-166 153 141 0
-158 163 154 0
-101 -143 -86 147 150 139 -158 0
-163 145 0
155 -124 164 157 -142 0
91 -161 -133 0
146 155 -149 133 0
-138 -162 166 0
143 161 -153 146 0
-137 158 -144 -132 161 165 156 0
-166 152 -161 0
-164 -161 149 -159 -145 -144 -157 0
-160 -163 134 0
144 -165 -164 -153 102 0
138 -164 -159 127 -151 145 -161 132 0
139 133 137 0
-101 -157 163 164 -156 150 111 0
165 -162 0
-158 -9 -156 152 -165 -166 -145 0
155 157 -139 -64 -145 0
149 -135 -165 156 161 0
-135 116 165 0
-187 -180 192 173 -185 141 182 -178 0
175 157 176 0
146 -143 -181 0
-171 -147 161 157 142 185 143 -160 -155 183 172 0
194 157 -156 0
-193 -150 152 -109 147 -138 158 189 -172 -73 -168 160 178 0
-188 169 -175 0
-161 151 152 0
-144 -194 -138 171 0
-152 160 -191 -173 159 168 165 -176 -170 -192 0
147 177 -190 0
-169 -179 146 -160 -140 0
159 -154 -164 -148 0
126 -165 -152 -150 -135 -146 0
181 -167 193 -164 -159 158 0
132 -145 184 188 191 179 0
190 -137 187 0
-183 154 -156 0
-144 166 -174 -137 109 -132 0
-152 -149 170 -189 167 180 0
-148 151 -186 163 -150 159 -165 174 0
-182 186 -177 -165 -184 171 164 0
174 -155 -154 180 0
183 -192 95 0
175 155 -164 161 -189 0
-176 180 -80 0
186 137 192 -145 0
194 -107 184 146 0
164 -182 172 181 0
-186 140 77 157 150 -161 0
-149 156 175 0
182 -183 104 166 155 167 174 152 172 0
-182 176 -157 0
155 192 -167 0
-188 -163 -165 0
-80 -154 143 -173 -182 -172 -179 -164 -190 194 0
-164 181 194 -166 0
177 -194 140 -158 173 0
-160 95 167 161 0
175 -162 176 0
-176 160 -188 0
82 -146 -162 -167 165 -192 0
-191 -180 159 178 -181 0
191 -180 168 0
171 -156 -153 -181 0
-66 -102 -141 192 0
145 172 -120 194 -157 0
-134 -174 -160 189 -184 190 -162 170 0
-159 186 165 -163 -137 -144 -164 155 -140 0
-184 188 165 166 150 191 0
-188 -130 171 0
158 -177 -192 0
-176 -149 -178 -192 179 -184 161 -169 -185 0
138 162 193 186 -146 173 -161 -166 174 159 152 -142 -137 153 145 0
174 193 -186 159 -179 185 157 -183 -175 -135 -176 0
-151 -145 -193 -143 148 -176 -154 158 -107 -134 -183 -192 184 -164 0
156 180 172 0
-117 191 -158 92 140 0
167 194 -192 0
167 160 181 0
-170 -145 188 155 -171 -174 -191 -183 129 0
-182 -139 -136 190 -184 181 -193 164 0
156 179 -155 0
-170 141 194 189 -134 177 0
-190 -161 153 0
189 -155 -178 0
167 -101 -159 0
178 183 0
167 -168 191 174 153 178 -170 176 193 -135 0
-133 -154 -166 0
166 -185 165 144 139 -187 -190 0
-183 -148 179 140 0
185 -190 -138 -136 0
163 175 -144 0
-189 -164 -181 0
176 179 194 193 0
166 169 -164 -146 0
134 183 -147 0
-161 187 -153 176 0
-98 155 159 -181 0
-194 -165 144 0
75 -168 -145 191 -183 -172 65 -135 174 0
-177 -159 -185 -169 0
-155 -173 175 0
144 -135 -187 178 179 -156 0
193 -169 191 0
153 -161 190 0
181 -191 161 188 0
-152 158 -194 0
184 -157 149 0
-194 138 -172 170 0
175 160 -145 -156 188 0
160 171 180 -161 114 -165 -148 194 0
149 148 -156 0
-173 186 -174 165 171 0
163 155 170 0
-156 158 -147 -154 -153 -144 165 177 157 149 -155 181 0
191 -180 -157 0
85 187 -168 189 128 0
153 115 150 0
-175 -177 184 172 -178 0
147 -162 176 -166 0
158 150 -177 0
-168 -144 192 166 155 181 176 0
-155 144 149 164 -166 -184 0
147 -150 -145 0
-150 145 -163 168 -161 178 0
-179 146 189 -186 0
-153 186 -180 -146 159 -132 -144 182 0
157 -147 -171 155 -108 -121 -184 0
-173 153 158 155 -181 -164 -187 0
170 172 -188 186 0
-137 161 -184 0
-172 -149 186 -190 0
176 148 -194 -186 0
116 179 -159 163 0
-194 -140 -172 153 176 0
173 158 191 -156 0
145 178 -135 162 -188 140 -182 -176 -146 0
-141 -185 -154 -148 -189 194 120 0
-179 162 -158 0
175 -186 163 185 0
-177 -158 -152 167 0
167 172 182 -154 194 150 0
162 -133 190 0
-189 -161 -184 150 175 -169 0
-193 -157 169 0
147 -190 169 188 -157 175 -193 0
162 183 -150 92 0
194 -180 -179 0
-154 -166 183 0
-190 174 -158 0
192 -187 150 0
-157 -171 -155 0
-182 -186 -130 0
-170 -185 155 190 -96 0
-190 167 156 -161 -187 -164 0
187 -153 -163 158 0
-186 193 -159 -167 -132 161 -143 -192 0
-151 -164 180 191 0
-176 -140 -183 189 -161 165 0
141 145 -164 -163 0
-173 -163 171 0
-202 -143 154 -218 -219 0
178 -104 188 0
204 216 -138 -211 206 -140 -178 156 212 0
183 215 126 0
197 -216 -166 219 -189 8 0
195 -208 -198 -164 205 0
184 171 -199 0
147 -134 188 157 208 -200 -176 0
155 196 161 182 -204 0
209 -215 -206 0
213 -132 -210 0
177 217 210 179 0
-207 214 -173 203 190 199 0
202 -153 -195 0
-196 211 -185 0
177 -209 -163 188 0
-148 180 -213 -177 0
164 -194 -170 0
133 -167 -214 0
-201 218 -205 -193 0
-166 173 -212 0
207 201 -185 0
159 161 156 -181 200 194 198 -197 -203 170 -217 177 0
191 173 -199 149 0
192 195 147 -168 0
204 205 167 -201 145 0
209 -216 -184 0
-211 -209 216 -181 178 -191 0
189 -155 -172 190 198 137 0
-214 -200 -219 0
213 -219 -203 0
-195 -217 -212 158 0
-181 218 177 155 -211 175 -212 -214 0
-207 172 -216 201 175 196 -166 199 -169 -152 -198 -197 162 0
-166 165 218 -179 0
-77 215 205 -173 -219 -184 161 216 -203 145 0
216 -168 -134 -202 -179 0
201 156 145 0
133 -152 160 0
218 202 -151 -204 181 176 -215 -125 -206 0
211 201 -172 -167 -197 0
161 169 218 196 180 162 191 -219 0
197 -214 207 0
154 -205 162 -215 217 -146 0
147 205 0
154 207 213 203 -217 -178 0
203 196 -218 -188 -207 0
-154 210 -218 202 -214 0
194 -195 -43 0
218 -214 -197 179 -198 -209 98 0
155 -144 -213 0
212 -218 199 205 -139 -184 -161 -173 195 200 201 203 -196 -170 -175 -206 -158 215 0
149 193 181 0
-184 167 -178 180 0
-210 209 219 189 -154 -155 0
-180 209 187 -155 212 145 -189 0
202 -148 -201 146 -168 0
205 -194 -185 -162 160 208 -214 -203 210 215 164 -182 -144 0
-198 -192 217 0
212 -216 205 -174 0
-188 181 -178 197 0
183 214 217 -188 145 161 -208 0
203 -179 135 -199 -79 218 0
147 -130 -217 155 0
203 217 -209 -196 -201 0
172 202 -211 -171 146 -164 0
196 -212 184 214 201 0
201 188 -195 0
-209 171 156 -167 0
-208 -206 -172 -145 -199 -219 0
-152 -194 -132 -190 0
187 -155 -208 0
216 203 -145 -213 201 210 0
-180 161 205 -209 201 197 0
151 -186 213 0
-208 181 194 0
-200 -196 -146 208 219 0
202 -216 199 159 191 0
207 101 -172 -163 -204 199 0
146 204 201 0
139 -195 -194 181 0
-215 138 -188 0
138 -152 161 -200 -146 0
156 215 193 0
151 -201 -208 -173 200 0
-200 217 -208 0
190 199 -151 0
-182 -140 186 -198 -199 216 0
168 -218 207 0
211 -197 213 -177 0
-212 162 200 0
-205 -210 215 197 0
199 -207 209 192 -203 147 177 -188 0
-134 -162 199 0
191 -217 -151 159 0
-211 -171 208 196 137 -217 213 159 -165 200 0
98 170 195 167 -207 0
178 211 202 0
-152 166 -203 0
-217 147 154 -202 -164 214 0
-184 176 190 -202 -177 -186 0
-211 -164 104 -210 215 0
-201 168 -143 0
-148 193 -212 195 -191 0
-179 -199 213 -158 0
-160 155 204 0
165 -210 -211 -215 188 -217 156 157 -205 -158 0
-217 -181 -214 -182 0
-208 161 -166 0
192 -219 -108 202 217 218 0
182 208 148 0
212 213 205 0
-209 -207 195 0
183 201 -189 -202 0
-191 -185 180 199 0
189 200 216 -132 160 0
197 210 175 -196 0
184 -193 186 0
199 218 148 164 -213 0
-166 172 213 90 0
-144 -148 145 -116 0
176 -195 -213 -209 0
146 -155 208 -176 -161 -214 0
210 -185 -186 218 206 -215 182 159 0
-159 211 -195 -177 141 133 -142 156 -216 -213 201 0
-215 -195 205 -149 -189 166 0
-159 -187 0
-181 152 144 -200 0
-150 210 -151 0
-196 202 204 211 -213 -191 0
-185 143 -193 0
-170 201 -177 -218 166 0
-196 -215 -109 -208 0
179 138 -216 0
-216 -198 -210 -152 172 0
-195 81 178 0
-217 218 -147 -207 -163 201 197 -170 0
155 -202 145 191 -200 -169 -165 151 178 207 95 78 -203 167 0
-207 209 208 168 196 0
209 149 -180 217 -154 0
-200 148 -168 -195 80 -135 0
193 -187 -173 0
196 -172 205 188 149 0
205 -214 217 0
200 206 136 196 -184 0
216 -206 -163 175 198 0
215 -147 -212 0
76 211 -133 0
-209 -197 -210 170 217 0
210 -214 194 149 213 -169 -171 -147 -218 -177 217 209 -185 -196 219 0
211 160 -207 -165 -196 219 0
-195 206 160 0
-206 170 -196 160 -204 0
-217 -201 -208 -192 -144 209 63 212 145 -130 0
199 211 186 0
213 183 204 0
-155 205 183 208 0
-156 194 208 215 -210 188 -217 202 209 211 -204 -196 0
133 -157 -183 0
142 170 199 0
216 -205 -217 -191 -203 207 0
193 -199 -189 -131 191 -151 -143 0
207 -167 -84 -201 192 0
-199 -209 -202 -216 -206 0
198 -212 217 208 -196 -174 -138 -140 0
-90 -207 188 206 0
-163 -167 151 -211 0
201 158 -219 215 0
-176 168 -160 0
-174 -180 -151 167 208 177 0
165 183 196 186 -144 201 0
198 -169 -159 0
-166 153 -197 0
-211 -174 181 216 0
155 208 166 -214 153 -173 -177 -161 167 0
131 180 201 0
-205 164 -209 -207 172 -203 -112 204 0
158 176 202 198 0
175 213 153 0
114 218 -139 -200 -169 -195 0
211 186 198 -159 -152 0
172 -200 153 0
180 -195 193 0
-213 -196 173 0
141 -202 -203 0
209 -184 -140 0
82 96 163 -207 0
-121 170 191 -146 -199 186 187 0
-195 -217 201 0
137 -159 205 0
214 -152 -144 0
212 200 172 183 -147 0
-214 198 -196 0
182 -217 201 202 0
-134 -210 216 -203 0
-193 137 198 0
180 -144 158 198 0
-215 213 197 -165 201 0
215 -141 -189 -196 0
209 -180 203 0
-129 148 160 -153 0
175 -193 -211 0
186 -153 154 -177 0
208 210 155 0
100 -202 194 -195 198 200 -182 -219 -213 0
-197 219 -196 0
-204 -155 -195 0
199 -188 182 208 -154 196 0
147 156 -205 -203 -213 207 153 0
202 -189 -191 -176 -143 -212 187 -149 -210 0
195 -183 -211 0
-196 -164 209 -167 204 -174 -160 -163 -202 0
-202 184 -175 0
195 143 -214 -151 194 204 -219 -183 189 0
193 199 -201 -171 0
-204 189 -155 0
-174 146 -177 134 -198 -156 164 0
196 215 -67 205 -183 -218 0
179 219 -104 195 216 -187 213 0
208 207 203 0
157 195 213 -193 218 183 159 -200 210 0
216 -151 175 202 200 0
-151 158 -148 0
-148 224 230 217 0
214 205 225 0
184 -214 -235 0
154 232 221 198 0
-234 211 -220 0
213 -226 202 0
228 198 -229 0
-222 212 -182 200 0
235 167 199 -227 210 149 223 233 231 183 0
-224 -154 -223 0
-228 194 -231 0
227 -170 -232 176 229 206 -225 220 166 -230 0
234 -139 226 -233 0
-207 -221 222 170 0
-219 -227 -188 0
233 -162 0
234 -210 -212 -233 0
178 -227 229 0
231 232 -229 -152 -219 151 -198 193 -203 0
-182 224 206 0
235 221 -85 0
227 179 -228 0
201 -221 -227 -235 174 0
221 195 -167 -232 0
-149 230 -225 227 0
-198 152 72 182 0
-205 197 161 0
181 -227 231 226 0
198 229 206 0
-176 -208 186 -222 -220 216 0
-171 222 229 206 -227 232 0
-189 119 -228 181 -204 0
198 234 224 -225 206 209 -212 0
-216 221 202 227 0
-230 -185 -221 166 157 -207 -145 0
205 -229 -227 221 -231 129 -213 0
165 -172 -166 0
-229 233 -225 0
-199 -224 211 -220 205 172 207 0
224 -234 -166 0
-223 -221 -228 0
-221 226 -175 -201 233 -172 0
-222 -149 -226 -213 0
232 209 0
-235 -230 234 0
-225 -234 -230 -160 -147 229 0
-231 -220 -153 168 235 0
-223 -233 198 -192 0
-143 224 -164 229 -210 -217 0
228 232 210 0
-220 233 -211 0
218 201 231 -162 234 -232 -156 0
-222 -209 217 -197 0
223 229 -220 -162 0
-161 -220 -117 229 0
230 223 -227 -3 -222 -173 -228 0
-223 -178 195 0
229 227 -200 -188 232 201 182 198 0
155 -158 -231 89 -225 -221 -232 -220 -230 93 0
186 -232 231 225 224 0
188 -232 235 -207 0
-207 -233 -180 193 -198 -211 225 -176 -222 0
211 -229 225 219 176 -220 -230 -235 -218 -208 228 0
210 -185 -203 0
225 228 -221 -227 -202 -226 -165 232 0
235 227 -209 0
-205 157 196 226 225 210 0
212 206 197 153 152 225 -228 199 0
224 -231 235 0
-224 163 232 -149 162 -234 172 229 0
-231 -229 228 207 -221 0
-220 222 176 0
234 -174 -229 196 0
-223 -224 198 231 214 219 -226 -176 -194 207 0
-220 -229 218 0
-191 233 -152 0
-169 -199 222 0
230 -232 235 0
-226 224 217 233 -216 176 231 227 235 -196 -234 191 0
232 177 -233 -185 -231 0
218 215 -85 -207 -221 0
-195 -232 -216 -226 200 0
-188 141 -229 -216 0
210 -199 224 232 204 -230 229 172 0
195 209 154 -170 230 -203 -151 0
187 149 164 196 -234 0
-224 214 229 101 196 -234 0
-223 -201 233 221 202 0
-230 214 -194 -222 200 -235 -223 -149 233 -185 0
-160 -231 -235 -223 -153 0
230 228 -101 -166 0
210 139 233 229 107 179 -164 0
220 229 195 146 0
-198 -228 229 0
-183 232 0
-230 191 -174 173 156 151 0
225 224 -207 -229 232 0
233 -223 -178 208 -224 0
-175 188 217 0
227 232 221 -235 -222 -224 157 0
-232 229 -235 -145 220 0
-215 -222 -230 -229 235 -198 0
223 -211 -175 0
234 -156 -220 -235 0
-173 225 0
-211 231 -229 158 0
211 -230 -160 166 0
223 -234 228 196 -227 0
-172 -181 215 -85 -196 202 0
-223 -215 189 224 0
-143 -204 224 0
226 169 -152 235 0
225 -228 226 209 -229 0
-138 215 -163 0
232 -222 0
114 205 227 -210 198 0
224 234 201 199 -176 0
196 -222 195 -231 232 -229 0
-207 -232 229 -206 -172 -231 -179 -222 -162 0
197 -212 -209 160 0
-224 -215 136 216 0
232 230 193 0
234 232 220 205 0
158 235 -203 0
216 197 -208 -224 -234 0
-230 177 -203 0
230 226 -218 -207 0
-230 -227 211 199 0
-165 -206 -197 0
-224 202 225 -148 203 0
228 218 -202 -164 -221 153 0
181 224 -225 -195 -161 165 0
-225 223 -234 -211 -200 -229 0
222 -213 194 97 0
-148 225 212 198 233 -215 0
229 157 -171 0
191 206 -198 0
-228 226 -230 0
222 -221 -234 -174 0
200 228 223 -206 -230 222 0
-226 224 -219 141 -231 0
226 -230 -198 -204 0
-206 212 -229 0
198 -234 -229 -199 146 222 0
221 -225 -232 -216 -159 234 0
-209 223 -144 0
225 216 234 0
-215 86 -222 231 210 -234 0
235 211 213 0
-209 -229 -186 228 187 -184 -235 0
-234 157 205 0
-210 -229 -204 0
223 -197 233 229 -231 226 230 -176 0
227 -229 194 -158 155 0
240 250 158 -241 251 -224 0
153 -251 226 0
154 206 -230 241 0
236 231 77 0
226 232 242 -235 -247 190 230 -228 249 -201 -234 221 237 0
225 -242 246 221 220 -145 -238 187 0
-236 -246 -244 0
-250 238 212 229 0
221 222 -237 -243 0
-245 247 -234 -249 -166 -223 0
-248 245 -240 -200 0
248 239 -235 0
-239 226 243 244 0
251 247 -192 0
-250 -211 236 0
-243 242 199 217 0
226 -248 -237 0
247 -240 -249 221 0
248 -232 0
241 -203 -192 -228 -240 0
-205 -149 -246 232 -241 223 -251 0
241 222 0
-224 -250 -246 0
237 -195 -235 0
-245 -246 -210 -229 224 -218 215 0
-223 146 -199 238 0
205 215 -242 0
151 -239 229 -235 0
-153 -172 -243 225 251 244 222 -248 195 -231 236 -234 246 240 0
-242 141 -250 251 0
232 206 -251 236 240 243 -242 -220 223 -229 208 0
-237 238 -217 -243 -226 0
237 -251 239 -243 0
-227 -164 -242 -166 -251 221 -224 189 247 248 158 223 0
-251 198 -217 -237 0
-234 249 -251 0
-245 -244 -240 -241 0
-217 -204 -188 0
-237 250 -241 -249 0
-245 219 -236 -224 0
-239 245 170 -238 -202 0
-222 -226 -156 0
239 246 220 0
-230 239 -231 -229 -238 0
248 197 -119 235 -207 251 0
207 241 -230 245 248 -222 242 225 239 0
178 -224 -233 0
-241 247 -251 0
243 -57 -242 0
-199 -232 -242 -243 -239 -248 -240 0
-226 -250 -162 -185 0
-203 -237 -222 -247 -233 -193 0
-155 239 234 -247 0
232 241 -238 0
244 246 236 -222 -174 242 251 0
-186 241 237 173 -229 -234 0
240 -224 -222 228 0
-234 236 -154 -248 0
241 198 0
238 -245 -247 0
-237 -233 -204 0
236 240 -161 0
-244 213 -226 234 0
-228 -205 -209 -238 -163 0
-245 -237 247 163 -213 -152 -239 0
-240 212 -229 -237 249 247 208 -243 -248 0
199 221 -248 0
235 -246 -241 249 0
-247 250 242 0
132 233 -226 0
241 -229 251 0
-241 222 0
-236 163 -249 172 232 0
232 -244 -234 237 -228 246 -248 245 -239 0
223 -250 -241 0
181 242 -174 0
-208 -204 219 -240 -247 0
171 237 219 -249 0
246 -211 -241 0
231 -234 -202 0
250 -239 -241 0
-200 216 -156 -246 -220 0
-241 236 -206 228 -244 143 237 0
-250 251 143 237 0
-251 244 240 0
248 205 243 0
-220 -173 215 231 -237 0
-250 246 242 240 -244 -199 241 180 0
243 -249 -250 244 228 0
238 -166 -236 0
-149 -244 -250 243 0
-196 247 244 234 0
-235 -220 -240 0
211 -245 -223 0
251 229 171 0
-238 228 205 242 0
-219 -241 -242 -240 -248 189 162 -226 246 232 233 -223 0
220 -222 -169 -244 0
-236 -213 -243 -239 0
246 -240 230 0
-235 -221 238 223 0
-230 -236 -229 0
217 -229 -189 -228 0
233 -219 -241 -221 -226 0
-195 236 -246 220 249 242 223 0
-247 -207 -149 213 -239 0
-209 -220 243 0
249 221 -227 -248 0
-223 222 -160 0
-236 -244 222 -251 246 0
205 -154 -228 0
234 239 -221 242 217 -148 236 250 223 -240 0
-251 -209 -244 0
-238 240 251 -239 185 -220 244 248 0
243 242 233 235 247 230 223 0
230 149 -168 187 -251 0
-258 266 248 149 -256 244 -228 0
240 242 -263 0
264 124 271 -260 0
232 194 -257 0
-222 260 -238 223 256 0
239 -241 -261 -197 -242 267 -178 252 -221 0
-259 247 241 242 0
-184 -266 257 0
-248 204 -167 245 0
269 225 -272 255 0
215 196 272 -180 -238 259 237 -250 249 -262 -239 0
-225 -232 -252 -230 242 -267 -254 253 0
261 -240 -243 0
-255 223 -242 -264 247 -244 0
263 -265 222 -240 258 -269 -152 -238 0
228 262 -253 -271 268 -270 245 0
265 -268 235 0
254 270 -267 -251 162 246 -243 0
257 -237 250 0
254 257 239 -256 0
-245 -195 -254 -255 0
-257 264 260 0
-264 -258 -255 270 0
-237 -256 224 0
255 -265 -240 250 0
-253 -250 -259 0
-236 -256 267 0
270 -196 -248 -144 265 0
223 260 -145 -233 -259 258 -246 0
153 -272 252 0
242 -243 245 0
257 -235 -240 -256 258 -220 260 272 0
263 -251 -252 -152 238 264 266 95 241 0
-269 -265 -218 0
246 -250 -221 -236 -247 0
262 -253 -264 0
-236 253 -251 0
-257 272 -252 -172 0
-266 260 233 257 -250 -252 0
206 -227 -270 272 246 222 0
-254 257 258 -223 236 0
272 237 -251 150 0
-266 -236 -258 0
-247 -271 226 262 0
269 222 -231 250 -225 -249 -244 259 268 238 -255 0
238 -268 -205 0
250 -257 200 0
207 232 -263 -152 0
-145 -226 -269 243 252 0
-265 -236 -257 0
225 260 -250 0
-260 -235 -194 -225 0
-268 272 232 -221 270 0
244 -249 -231 236 269 0
-267 251 221 -266 -247 -272 -261 -248 246 270 -254 213 222 0
-269 -266 -140 0
260 -259 248 0
260 250 259 264 -257 0
-230 -237 -270 0
-227 -243 265 0
187 -265 -272 261 -197 -254 268 234 0
-266 -219 -261 -270 0
-227 -253 261 -269 0
-270 -265 -200 0
245 236 -241 254 0
-231 237 268 -244 0
232 248 161 -229 0
254 260 171 0
272 238 270 0
-222 250 253 262 -256 -229 0
188 268 225 203 0
-267 270 -250 0
-262 265 -246 238 0
-176 -253 241 199 270 0
-264 -243 263 -187 223 0
-241 264 -252 213 256 0
-258 -251 -260 0
237 -246 -260 0
-253 239 -252 0
233 267 -160 -157 0
-267 237 265 194 0
242 257 267 0
-262 249 -257 -268 0
-239 258 230 -253 252 244 0
-254 -249 -242 0
251 267 257 -270 235 0
239 -248 -201 250 -238 272 -237 0
237 -262 271 0
267 -256 244 -197 0
229 250 -271 -247 0
230 259 269 265 252 0
-269 260 220 0
-258 -259 -179 0
254 -245 -265 -217 258 238 0
272 267 248 0
-262 252 263 0
217 -222 -268 -259 -237 204 0
208 242 250 -251 0
230 -266 -253 -241 0
-258 -253 205 -242 -259 231 -221 262 0
-239 -263 -243 0
243 -265 -269 267 -198 0
-268 155 -253 -246 251 -265 0
-223 -264 -267 -217 -247 181 -270 0
265 207 -245 -254 -260 255 -243 -223 247 0
-236 -267 -245 251 -256 257 0
270 244 263 237 -260 200 -134 249 0
245 198 197 0
262 -246 -221 0
235 -100 -223 -253 163 0
236 -219 256 226 270 0
271 -230 -267 0
258 -260 251 262 0
-272 237 -267 -156 0
236 252 243 0
237 245 269 -238 -200 236 0
-144 266 256 0
-246 -272 -243 0
-257 258 260 0
263 250 270 -229 -213 0
247 252 -262 0
-261 -230 -265 0
-235 252 -245 267 -255 -261 0
262 -265 -247 -200 270 0
-226 -241 258 0
271 -255 -254 252 0
-142 173 267 -233 257 259 238 0
-144 -263 267 -178 -262 238 272 0
-253 248 -171 -243 259 241 -271 0
146 236 249 -244 -216 0
-258 245 -241 0
-255 -266 -223 -270 258 -155 0
-237 258 -222 243 221 0
236 -271 238 221 0
242 178 239 -260 0
-267 253 -264 0
243 271 262 263 0
-255 261 -217 0
-254 -156 249 -266 0
-232 -260 -235 262 -252 -244 -241 151 234 -243 203 268 -269 0
258 -268 230 0
267 -179 257 -262 0
-254 -239 -253 -212 270 0
239 -258 202 253 271 225 0
260 241 -242 0
-266 259 258 -271 -255 -243 225 -248 0
261 205 268 -222 247 0
-260 272 -135 0
-239 198 228 0
-267 -254 -236 200 266 221 -256 -248 0
188 248 266 230 0
