c seed 476730
c max width 11
c layers 3
c layer[0] = [1..11] w=11 v=11 c=46 r=4.18
c layer[1] = [12..21] w=10 v=21 c=85 r=4.05
c layer[2] = [22..32] w=11 v=21 c=64 r=3.05
p cnf 32 195
1 -11 4 6 2 5 0
7 11 -3 -1 9 -2 0
-9 -10 -6 3 0
8 -4 -7 0
-5 -8 10 11 0
10 -5 4 11 0
6 8 9 0
-9 8 1 4 0
1 -10 -4 7 -11 3 0
3 2 1 8 10 6 0
-5 6 7 0
-8 -10 2 -9 -11 0
-2 -6 7 3 10 -1 4 0
7 -10 3 0
3 4 -2 1 9 5 0
5 -4 -9 1 -3 6 0
11 -4 -7 10 0
-8 -9 -10 1 0
9 2 0
2 -1 -9 0
-9 3 8 1 0
1 10 8 0
-9 -5 2 11 0
1 8 0
-6 1 -7 0
9 3 -2 -5 0
7 11 9 0
-6 4 9 -5 10 0
-2 -8 4 0
-4 1 5 0
-3 6 0
8 -3 9 0
-7 -4 -6 -10 5 -11 0
-9 -6 0
-7 5 3 1 -2 0
-8 2 0
-9 1 -5 10 7 0
-1 -9 -10 8 11 6 3 0
6 5 1 -8 -7 -10 3 0
11 -9 5 -10 1 6 7 0
-7 -4 8 -11 -6 0
-4 11 2 -3 0
11 10 0
-2 1 -4 0
6 11 -4 10 0
9 10 7 0
12 -11 8 9 -17 0
-12 -20 -16 -10 21 -4 17 7 0
20 -1 8 -15 -13 18 0
7 14 4 0
-14 1 -2 0
16 -18 19 0
13 -1 -19 0
-21 15 18 14 0
-18 8 -19 -16 6 12 5 0
1 -9 -6 0
-12 -8 10 -9 0
-3 -13 5 0
-3 15 -11 0
-15 3 -14 -11 0
5 -18 4 0
13 16 20 -9 -6 0
17 19 -1 0
6 -2 13 0
19 2 -13 0
-21 17 -2 -20 -8 0
-2 13 7 0
-8 -12 0
7 -16 13 0
4 2 -14 -21 -6 3 19 1 0
18 21 14 2 9 -4 0
10 20 16 0
14 13 3 0
-20 -13 -4 2 -21 0
-4 12 19 0
-19 -15 -10 1 -16 20 -5 0
-15 -9 17 6 -1 5 0
13 12 -15 0
12 5 2 0
7 -9 -20 17 15 14 0
-15 17 11 13 21 0
-1 2 18 -15 -4 0
-8 -14 -21 19 -20 17 -5 -12 -15 16 0
-7 -11 15 6 10 0
-13 14 4 0
19 21 -10 -12 -15 0
-6 -8 -4 14 0
7 16 3 -1 -21 -10 0
12 1 -2 0
-17 -1 13 -10 -19 0
-2 -11 0
-4 1 13 0
21 -4 5 0
-6 -8 2 0
11 17 -7 0
17 -21 -7 -19 0
9 1 -15 14 0
13 -12 21 -3 0
3 2 20 -13 -7 0
9 15 -19 -3 13 0
15 1 0
11 2 -17 -12 4 0
-9 -13 -6 -2 19 -16 0
-11 -17 21 -10 -15 -16 8 -5 -14 0
-18 8 -4 0
-20 19 0
17 -15 4 -2 -1 0
20 -6 17 18 7 0
3 -5 4 0
5 -9 14 12 17 1 0
18 -10 -4 0
-17 -21 2 9 8 19 -5 11 -12 0
-14 20 10 0
3 18 16 0
-19 1 2 -4 17 0
-14 -11 12 -21 9 -7 0
4 17 5 0
6 1 8 0
-20 -15 -19 0
-12 19 1 0
17 -4 -8 0
-4 13 -3 1 0
21 15 10 9 -7 0
-13 14 0
-20 5 -21 0
-5 -15 -4 0
-10 17 -15 0
16 -15 1 -21 17 6 -3 0
9 16 11 0
-14 19 -16 3 -7 0
-15 -21 0
-32 -5 -24 -13 30 2 -26 31 23 0
-2 28 8 0
-15 -28 32 25 0
-29 -4 -30 0
-31 26 24 -13 0
-23 29 -25 27 0
-17 -20 12 22 0
20 6 -22 -16 -3 -13 -27 0
-19 15 31 -27 -24 26 0
14 22 -27 0
18 -2 16 0
-2 -21 4 -8 0
18 -26 -30 27 10 0
-24 27 0
-8 -11 24 0
-32 -25 30 -18 0
-9 -21 -30 -27 -17 -26 0
13 -28 25 -26 0
29 -7 13 10 -25 22 28 0
4 31 -25 0
3 -7 30 8 -27 -28 0
-17 26 0
-25 2 -16 -11 -31 0
24 17 -12 0
-2 -16 -15 0
29 27 -20 9 24 -32 31 14 0
26 22 28 -13 23 0
-24 -27 21 -4 0
-15 -25 -14 -22 0
-22 27 -14 17 -26 11 0
27 18 -26 29 0
-14 -9 28 13 0
-24 -32 -11 -26 25 -9 -3 -23 0
19 31 -26 22 3 -30 25 -15 29 -10 -7 -21 24 0
-12 18 -2 27 0
-2 -29 3 -12 0
-1 28 -26 -29 30 13 0
-23 -15 -4 -30 10 -20 17 -5 0
-32 27 2 0
-10 -18 -9 28 -32 -22 24 25 0
-13 17 14 0
-15 9 -16 0
8 27 31 -17 0
27 23 18 0
-23 24 7 30 0
-28 -8 15 -9 31 25 0
1 4 -12 0
16 -13 19 0
16 32 5 -23 0
30 -10 23 -1 0
30 -29 23 -28 26 3 15 -17 13 -12 32 0
-2 13 -27 -16 19 0
31 -7 -18 -24 23 -30 -29 0
23 -21 16 13 -24 27 0
2 22 -27 -32 -10 0
-11 1 27 -17 -6 25 -24 0
-21 -15 18 32 -24 -9 -1 8 0
-27 -31 23 -17 -22 0
26 -27 9 -12 0
-29 -26 -32 0
27 16 22 30 -2 -14 0
-6 18 -12 -17 0
-11 25 -13 -29 17 26 -6 24 0
-3 -9 -1 30 0
