c seed 789848
c max width 24
c layers 4
c layer[0] = [1..24] w=24 v=24 c=99 r=4.12
c layer[1] = [25..45] w=21 v=45 c=171 r=3.80
c layer[2] = [46..57] w=12 v=33 c=140 r=4.24
c layer[3] = [58..73] w=16 v=28 c=94 r=3.36
p cnf 73 504
14 8 18 0
-16 -9 -1 6 0
11 4 -23 -13 0
-12 23 -20 3 -6 0
16 21 7 -5 13 -24 -11 10 -4 0
15 -18 2 20 -3 0
22 -14 -8 1 0
-10 -15 -19 -21 0
19 -17 -7 -2 0
17 -22 12 0
24 9 5 15 0
-12 7 24 15 0
11 -2 18 0
16 -12 15 -9 -21 5 0
-23 -10 -9 -2 -15 20 0
-6 -17 -15 0
14 18 21 -11 0
19 -6 2 -21 18 0
-3 1 -9 0
-14 19 -13 -24 11 23 -6 0
20 12 0
13 -18 1 24 0
-15 14 -20 3 -11 -5 -1 0
-6 -15 22 -14 18 0
-5 1 -21 -13 -15 -17 -11 -18 -16 20 -9 0
-12 10 13 0
-22 -1 3 15 10 13 -7 0
13 6 -22 -11 -3 0
17 18 -12 0
24 -11 -1 2 0
6 15 -22 2 12 -10 -24 0
-1 -14 4 20 15 0
-12 2 -9 10 20 21 -22 0
16 18 -23 -6 24 1 -10 0
10 17 -24 -23 -20 0
6 18 -9 0
17 -9 10 21 0
6 -7 -19 -21 23 14 0
7 -14 -10 0
18 21 -3 -20 -17 0
-19 -12 20 15 5 0
-10 -20 0
5 -6 10 22 18 0
23 24 5 0
-16 13 -5 0
17 9 -2 16 0
-2 16 -1 0
-1 4 11 0
1 17 -24 -9 14 10 -6 0
23 7 -1 0
20 -1 6 -18 -10 0
4 8 11 15 0
17 13 23 -11 10 0
-4 11 -5 0
1 -6 -3 20 -2 -13 0
-13 12 14 0
-23 24 -21 0
-15 7 -9 -4 -21 0
-6 18 -16 0
22 2 -14 -5 0
20 22 10 -6 16 0
-19 -5 13 0
-7 -22 -1 5 0
-5 19 23 -6 -24 -7 -16 2 0
-8 -1 3 -5 22 19 0
-4 -8 9 -21 0
10 -19 16 0
19 4 -1 0
-13 23 18 0
22 12 5 15 24 -13 17 0
4 -7 17 0
2 21 -11 12 -16 0
-4 -12 14 0
-10 22 2 -11 0
2 17 -8 20 -15 -1 0
5 -23 -11 -13 -12 10 0
-23 11 -6 4 9 0
3 6 20 0
-20 6 9 -8 -3 -7 -15 10 0
-3 -13 5 -19 23 0
6 20 13 10 19 -23 16 5 0
10 16 -3 0
-21 17 15 16 10 7 0
19 4 2 -11 -14 0
4 -17 21 -20 -2 16 3 -24 15 0
-8 -17 6 -5 0
-2 13 -4 15 0
12 -8 19 0
14 12 -3 2 -8 0
-4 24 2 0
-9 -21 11 5 0
-5 -21 -15 -23 4 8 0
-5 17 -1 -18 22 -15 -3 -7 20 0
3 12 13 -14 0
24 12 -1 14 17 0
19 21 -11 7 -6 0
-10 14 7 0
22 15 -6 7 -3 11 0
11 15 -2 0
28 -34 4 -45 0
-1 8 4 30 -43 0
18 -27 -20 33 14 -6 -13 0
-17 41 -6 20 0
3 -14 -19 42 39 0
44 20 7 -12 14 -30 25 22 0
-26 38 -29 -14 18 7 -21 -36 0
-38 36 -25 0
11 -17 -10 8 34 20 29 0
-24 37 17 0
27 -28 26 16 -40 -8 0
-33 43 24 0
-12 -41 -31 0
20 -32 -12 0
12 -37 13 5 -17 2 16 0
31 32 45 16 0
7 35 -24 0
-44 40 -42 0
-35 -39 23 0
-12 39 41 -10 29 22 0
-41 -28 34 -43 -21 30 0
14 41 7 0
9 24 -26 22 32 -45 -30 4 -3 -44 28 -36 -7 31 0
35 -5 -8 44 0
-37 24 40 17 44 18 -19 0
19 25 17 26 0
-1 22 2 32 11 -5 0
-45 4 -28 -41 17 0
38 35 20 -28 -7 0
-45 -39 -37 -9 -41 -28 0
-27 19 -38 5 12 1 15 0
34 -27 5 0
-19 -14 -29 24 0
-17 11 -43 35 -41 0
18 -14 -30 17 39 24 10 2 7 0
40 3 39 6 5 0
-36 7 -1 0
-2 -35 39 -37 0
17 -44 -13 38 -5 0
45 18 -24 0
-38 29 -27 0
-11 -13 -17 -43 0
19 -28 -2 -43 0
-7 -29 40 -38 -26 33 0
-39 9 11 0
-31 6 28 0
6 19 18 9 -11 17 8 0
44 -43 11 -6 2 0
-18 -19 3 0
-8 2 24 0
17 -18 -32 7 0
-18 -32 -37 -20 -11 8 39 30 43 38 0
-14 -43 24 30 -39 0
5 -23 -38 41 0
-19 37 16 36 44 22 0
11 25 4 28 -45 -15 0
37 2 7 0
44 31 20 0
-15 -32 -13 -38 -7 0
-19 -25 42 44 13 0
40 18 7 -42 -1 -29 43 12 0
-35 37 36 0
-7 -23 -28 0
41 19 -23 0
45 -30 -40 29 -26 0
-4 -14 39 0
-26 19 11 43 -20 15 38 23 -25 0
44 43 -45 8 23 -20 -10 0
24 36 -42 -41 38 -31 22 0
24 15 12 45 -38 -21 36 0
-43 45 -5 0
-32 35 34 -9 6 0
-18 14 39 -44 -16 -38 -2 42 0
-22 33 0
36 13 -5 -24 0
14 -9 11 -24 -12 16 20 -23 36 13 0
-8 17 43 0
31 -42 -40 -34 -43 -32 25 0
-31 -11 20 0
35 -9 -22 38 0
-38 4 20 0
36 -45 -9 0
37 30 -19 0
41 -15 45 6 0
7 -16 22 -17 0
9 5 27 -42 0
-13 40 22 14 42 36 0
10 43 -42 0
-15 -25 -4 17 21 0
-26 10 34 0
-5 -27 -42 -40 0
44 -36 37 20 -45 0
15 -11 34 0
-44 -13 -28 -41 -39 0
-6 -20 22 0
38 -5 39 -21 -18 14 0
-26 44 -34 -23 0
-29 24 -32 0
20 -7 -33 -6 38 0
6 -32 35 0
33 -32 -37 0
-26 -22 43 40 0
24 38 -35 0
-27 -36 -41 -23 0
34 17 28 15 -30 21 11 0
-29 -17 -1 7 21 -9 40 42 0
7 -35 -19 0
-6 -30 0
45 -22 -26 0
43 -30 -31 0
17 44 13 26 9 0
26 -40 13 6 0
-19 -44 -25 5 0
2 -6 -14 -22 -18 -41 5 0
7 -19 -26 0
-4 -44 45 -13 0
13 -25 -40 43 -6 9 0
42 -21 31 0
-31 28 0
-35 -41 -23 0
-20 8 39 7 -22 0
-12 37 -18 45 -34 -42 0
-16 10 -8 12 0
-19 4 29 0
32 39 -1 -43 -2 -30 -36 0
-44 38 -12 0
11 32 -28 0
1 -16 29 0
24 -39 -21 -7 29 -23 0
-45 -7 -28 -29 33 0
-16 -39 -11 -32 22 -21 0
-29 -25 -16 38 34 18 -44 -27 35 -39 24 -7 33 9 0
39 2 -37 -32 -12 30 6 0
15 -35 -31 42 -10 13 27 0
30 -40 -8 45 -1 0
-31 32 29 0
31 13 -12 19 -25 0
11 -29 -6 0
-43 -21 9 -12 39 0
-11 1 -5 34 43 0
15 9 -14 29 0
24 16 21 -44 0
-14 -12 -22 0
7 1 35 -25 10 34 -33 0
-31 4 43 0
39 12 42 -8 -36 0
18 13 -37 24 12 16 0
-14 -36 33 0
-34 -26 20 -18 0
37 18 36 42 23 32 -7 0
38 -21 31 0
-9 -1 -6 33 -31 0
-2 14 39 25 0
-21 2 38 -45 -18 24 0
-18 -42 -7 39 9 10 0
4 3 6 -29 0
28 -40 -39 0
-12 31 26 3 0
30 -27 13 33 -28 43 8 0
20 -15 31 0
37 13 -25 -33 0
-8 -24 -40 0
-14 -33 25 0
36 9 39 20 -43 21 -15 -1 0
31 -20 -2 0
32 -45 33 40 35 24 4 0
10 45 1 22 35 29 0
15 29 33 0
30 29 -34 -37 -26 0
7 -45 33 -32 -42 -10 -28 21 40 29 0
20 -28 -39 -41 -8 0
-39 -46 -53 0
-43 -18 36 0
56 57 -30 0
48 -47 -49 -26 0
53 40 31 0
-36 -51 6 -5 38 55 0
39 -55 31 -54 0
41 7 52 0
-26 47 50 0
51 30 -40 0
46 29 -45 8 -52 49 -48 0
-56 -13 -57 0
30 54 41 0
22 -50 56 -57 0
18 -43 -16 57 22 0
-56 -19 -13 -40 -57 48 0
15 53 8 0
49 -46 0
-48 -27 0
-23 -54 -50 51 0
-30 57 -33 -55 51 1 31 -16 0
-54 -10 51 55 52 57 -5 -53 -56 0
-50 18 -54 43 -13 33 -55 21 51 0
-49 -57 -44 -2 0
23 54 -20 57 0
-55 -47 2 19 0
15 -56 54 0
56 30 43 51 54 -48 -15 0
-52 -40 29 -48 49 0
-16 -57 7 -46 -43 0
-25 56 0
-14 4 -27 -31 -10 -24 0
13 52 -21 -34 0
51 24 11 0
50 55 -39 32 0
-44 -16 -55 0
-48 39 -24 26 0
54 -37 -56 -50 0
-54 -1 -4 -51 -49 0
-47 -54 -32 0
-37 -51 -47 -40 0
57 2 -45 14 -21 0
-29 20 32 -46 3 0
-22 40 19 0
-39 57 54 55 0
19 -28 6 0
56 -48 -28 -38 0
52 -47 54 0
57 48 -43 -18 -7 49 -54 39 44 28 0
16 50 48 0
-7 -36 23 -49 0
-54 46 -47 0
-53 56 -50 -52 0
50 -9 -49 36 18 37 -4 0
-55 -43 -25 -41 -46 7 0
25 -35 26 0
-16 -13 51 0
-55 -48 28 -57 -20 53 18 -54 52 0
38 -29 -14 -45 0
-1 55 30 -12 53 0
15 37 -53 -44 0
18 -15 -55 56 50 0
-49 -48 -57 0
-50 48 54 0
-34 -33 11 -55 37 -57 0
57 49 54 22 0
-23 -2 -52 55 -46 0
31 -47 -4 43 0
52 51 27 0
40 43 -34 0
18 57 -3 0
51 57 0
-57 -36 -48 12 -20 -50 55 -6 -46 0
-32 -18 -13 -36 0
-50 -10 47 0
-16 50 -35 0
23 -53 50 0
-28 -46 -44 -43 47 0
-9 14 49 -52 -50 2 0
-45 -40 -8 0
-57 -12 47 -52 0
-42 47 -43 15 57 49 0
12 57 46 0
47 1 -12 54 49 -52 -55 0
-48 41 45 13 0
13 -37 4 -55 5 0
45 -41 -23 52 -22 -57 0
55 37 0
48 46 -47 -50 1 4 56 49 37 0
47 -4 -54 21 0
-41 55 -48 -9 -21 6 0
-42 -35 -56 -51 47 -50 0
57 55 20 0
49 46 -10 0
-32 50 54 52 26 11 -13 46 57 0
-48 25 19 44 -46 -37 0
-28 49 -47 -51 16 -50 0
-54 -7 0
-55 54 -42 0
-29 -34 47 0
20 -54 -36 0
47 -46 36 -54 0
34 17 53 -56 0
9 54 43 0
-55 50 3 25 0
47 19 48 0
47 -57 6 0
39 52 18 43 0
-46 -7 -21 25 0
-54 -46 -51 0
57 36 45 0
11 54 -26 8 0
-41 -43 -15 -52 -54 13 0
53 -55 16 0
-16 3 -30 56 -20 -5 0
-1 -57 0
42 8 -29 36 -11 0
-48 -10 26 -50 -17 -52 0
-20 18 57 -41 -49 -50 0
57 5 17 -38 -44 -45 0
51 -48 -57 -53 0
52 -53 -46 -40 0
-14 46 -35 -57 -30 -34 0
-52 30 57 0
32 56 -55 0
30 -50 23 -52 0
57 -25 38 -8 -18 0
7 -48 -47 37 57 49 0
-13 -57 -53 -47 55 0
9 -49 46 0
34 -56 41 -51 -20 0
56 -10 -47 -50 7 0
-53 -6 -39 0
-20 54 41 40 55 0
-57 -48 -54 53 -17 -55 0
-45 -50 -33 55 -2 0
-30 -36 -49 0
48 57 34 11 29 0
-53 3 -46 -54 -36 -49 0
-55 -57 -34 0
-57 -6 -53 15 54 -17 73 -68 -67 66 -19 0
64 -55 72 65 -53 -11 0
28 -18 71 -12 60 0
-48 59 68 62 28 -69 -70 58 63 0
-24 47 -44 55 0
-36 38 70 -20 -63 0
47 -24 -64 -18 11 53 -61 0
-62 8 -44 0
-73 -20 10 52 -66 -60 -58 4 61 -54 0
69 67 -65 -41 -71 56 0
43 -59 53 0
-72 -63 -52 -67 28 -62 0
-63 -68 -16 0
62 73 65 68 0
-71 -56 -57 0
44 63 -66 -68 -54 -52 0
-69 -55 70 -49 50 68 -65 51 -57 -62 -63 66 -56 -71 27 0
-46 -56 23 55 0
-54 60 55 0
73 23 -54 -51 -70 -71 0
-63 21 50 57 35 51 -12 -54 0
-67 -60 -64 36 -19 -57 62 -72 18 61 73 0
47 -54 71 -58 0
53 -57 -70 -54 -6 71 0
31 68 -53 0
-61 65 -66 -48 63 -13 -47 0
-35 -58 -47 -60 -29 52 -54 68 51 -14 -17 0
22 57 -7 -47 0
-46 6 -54 63 39 0
53 57 -46 -65 -27 40 0
-42 -51 0
61 60 52 -63 -18 65 66 0
-54 -36 -59 -65 51 10 0
-71 -73 42 0
-31 -8 -66 0
-68 -10 -67 -58 0
-61 -27 21 -52 25 0
-55 -44 65 0
-46 -70 59 0
1 56 62 -50 -55 -13 36 0
-68 69 -9 0
-11 -70 -16 -23 49 -73 -30 -59 0
66 58 48 67 -60 42 53 -46 45 62 -72 64 0
-66 -30 55 -67 -21 -24 -73 63 17 -69 -64 -54 0
-72 -50 48 62 66 0
53 34 -33 -70 0
-52 -53 57 64 -46 -50 -67 -65 -70 -48 2 -73 -58 0
-54 -10 -60 64 67 0
63 32 73 0
-69 63 65 -20 -61 -29 0
70 -57 55 67 38 -8 44 -59 -71 -35 -51 0
46 -40 60 -48 68 57 70 0
53 -72 47 44 6 -21 -73 0
51 49 -62 0
-49 -63 -61 0
-8 -69 -44 54 0
-51 35 70 58 -55 38 52 0
52 -60 -65 66 72 -50 -61 2 -55 -53 64 0
-67 57 70 0
-63 56 -57 64 0
-58 -51 63 -68 59 0
68 51 48 61 -13 0
60 -67 63 0
71 -34 0
-62 -64 67 68 -51 0
66 -24 -40 62 0
-65 46 72 0
-56 25 0
-11 72 -9 25 6 -38 0
-53 28 63 -47 -61 0
57 -73 -55 0
62 -58 52 -47 -61 -22 0
66 61 -13 -54 0
73 18 -60 54 50 68 0
14 72 2 -59 0
-67 61 -56 0
73 66 41 0
64 -52 72 1 -63 0
-63 -31 51 58 0
25 -16 30 -56 -67 0
-68 66 -42 -58 0
-72 -52 47 60 -62 69 36 -61 37 0
-59 63 58 69 62 64 70 73 0
-37 58 39 0
-24 49 -73 47 -53 -70 69 65 60 62 0
-18 32 -67 58 0
65 20 46 55 -14 -70 -61 44 0
63 47 31 62 -59 -2 42 0
64 -73 -45 -50 47 58 63 -46 -70 0
71 -54 -5 0
67 -73 -64 -69 0
-60 59 70 0
-47 -48 49 -60 39 51 0
-58 67 -66 61 48 10 -69 0
