c t mc
p cnf 52 258
-18 20 -19 -6 -9 22 24 0
-7 19 -15 -10 0
-13 -5 -12 1 25 0
-25 7 17 18 -3 10 -8 0
2 9 8 12 6 -20 -14 0
11 13 -17 14 -4 0
-2 5 -11 -26 -1 -24 -21 0
-22 21 4 -16 0
16 15 -23 0
3 23 26 0
-7 22 -6 0
13 -21 26 0
-9 24 8 0
9 14 -11 0
-10 8 -5 0
-12 17 19 6 26 0
-8 9 -15 24 1 21 -19 0
10 -9 22 0
-24 11 -8 21 15 1 -23 19 17 0
-4 3 1 0
24 8 17 11 -14 0
-16 -10 -18 22 6 15 25 26 -17 24 -9 -7 0
12 -24 26 -9 -15 0
-18 9 10 3 0
24 25 -22 9 -12 -20 0
2 14 -20 0
-26 10 -23 -21 0
1 -18 -10 -7 0
-9 21 -22 -14 0
16 -2 25 0
25 6 16 0
3 21 -7 11 26 -2 0
5 3 0
-1 24 0
-5 16 -22 24 -13 0
1 10 -23 19 0
12 20 26 4 1 10 -13 25 -8 0
21 -10 -13 15 0
-20 -17 -3 -1 14 -13 -23 15 -6 0
-8 -24 -16 0
5 23 -8 9 16 -20 0
1 -14 2 0
23 18 0
6 -8 17 0
-5 -23 15 18 0
2 -3 17 5 -18 0
-23 -18 -9 0
-5 -3 0
21 -9 -26 -10 25 0
5 -20 -17 0
-8 16 -21 0
4 -17 21 22 11 0
-7 16 3 12 0
2 -10 24 -19 0
24 12 -19 5 0
19 -20 -9 18 0
17 -24 12 -4 0
-20 -18 -16 0
-23 -25 15 0
-10 21 17 0
-9 -10 -5 11 0
19 -3 1 25 15 0
24 -4 -9 -26 7 0
6 -8 11 0
-3 20 -7 -2 0
-12 -2 7 -14 21 0
20 22 -14 0
2 -15 -16 0
17 -4 -10 14 24 0
-4 21 -10 25 0
13 -18 -3 26 -1 21 -24 -20 0
-22 23 -9 1 0
-16 23 19 -13 0
-13 24 8 0
-2 6 21 0
22 14 3 -12 15 0
-24 -5 -4 12 -8 0
-25 13 6 -19 0
-21 -2 -1 -23 9 -14 22 -17 -11 0
-22 20 10 12 0
-37 -23 0
-13 30 -25 0
-27 11 -52 0
38 49 47 0
28 -20 51 0
-33 -39 24 50 46 44 11 0
41 1 -10 0
-18 -38 26 -51 36 0
17 35 -15 23 -44 39 0
11 12 -32 -8 0
-30 52 25 0
-10 -43 27 37 -29 3 -50 0
13 -5 -49 -35 -47 29 0
-42 33 -20 43 31 -36 -48 -11 0
12 40 -41 0
45 -34 7 -26 0
19 23 34 -5 13 -12 -45 0
-17 48 -31 0
-46 18 -40 -17 32 -7 -22 0
-28 42 -24 45 0
6 -5 -21 -7 0
8 -38 -22 -10 23 4 0
41 1 -46 36 0
44 25 11 47 17 -21 3 -22 0
38 49 43 -35 -30 0
33 26 12 35 0
-23 -2 -4 0
46 52 51 -38 -20 -14 -25 45 0
-33 -29 -4 -31 -1 0
22 5 -45 0
-31 -36 47 45 0
-21 15 18 0
40 -11 14 -48 0
26 -18 -8 -50 -11 -15 25 0
-26 -23 24 -15 0
50 -21 -29 -25 18 19 0
12 10 9 0
-5 -26 7 0
-51 19 -1 0
45 30 13 -11 0
50 22 8 43 37 14 2 -13 -45 0
-52 -23 -20 0
-42 6 7 22 -2 -27 52 45 -20 0
-24 39 21 0
-24 25 -2 27 45 0
1 27 46 49 4 38 8 0
47 -26 -52 -2 -49 -19 0
-28 -47 -11 0
45 47 -26 0
-37 8 -26 -50 0
-29 38 -48 31 -17 52 -28 25 0
-7 13 -41 16 -14 0
33 -42 -19 0
45 36 2 6 0
7 -42 -24 -40 0
4 22 31 -7 0
52 -8 4 0
47 11 33 17 2 -28 37 16 50 0
-38 -48 -4 -21 24 -51 0
-41 -8 28 -37 7 20 -26 0
-17 38 -41 47 -19 0
-17 -48 -11 -35 37 -23 28 0
-32 -7 -17 36 0
29 -11 -21 20 0
40 -19 2 -20 0
32 8 -40 14 29 -47 -50 43 -48 0
22 5 18 7 35 -6 0
11 -31 2 0
15 45 39 -19 0
32 -48 -34 28 4 0
-36 -51 16 0
-48 49 35 -50 0
1 -30 21 0
38 49 -18 42 24 0
40 -17 11 -22 -34 -4 0
-30 -44 -11 0
42 38 50 0
-2 13 24 -49 35 -8 23 -52 0
-3 -14 -29 37 48 -47 42 -36 -50 5 0
1 -35 42 -49 38 0
-10 34 14 49 0
22 40 -2 25 -12 0
7 37 20 38 0
17 -48 43 0
47 -4 -49 -50 0
31 -6 23 16 -5 0
-43 17 -5 -4 -9 0
-4 -49 47 -10 -25 6 45 -36 0
15 -10 -16 0
31 10 47 0
33 40 8 0
15 45 -4 8 19 0
-14 30 37 27 -44 -10 0
-50 32 33 26 0
-37 -52 0
23 -41 40 -46 0
49 -9 36 -21 52 0
41 30 -20 0
3 1 44 36 0
-16 12 -2 0
-51 14 36 43 0
46 31 -18 0
31 38 -11 50 9 0
41 -28 38 -51 -34 0
-42 48 24 -26 0
32 11 -33 -23 0
-45 -5 -49 36 -47 0
49 12 -11 -6 26 -4 0
18 -45 -1 49 37 -47 0
17 44 -8 1 -48 0
-18 -38 -8 -26 0
-19 8 -10 0
-41 46 -22 -50 5 -40 -30 0
38 -10 30 0
-32 -20 -23 47 -26 -14 -35 21 17 34 0
16 9 -33 0
28 -42 26 23 15 0
5 44 -42 13 0
31 1 27 -17 28 -37 -30 50 41 19 45 21 14 -40 0
28 1 46 41 -36 -38 12 0
27 -6 -36 -35 -46 41 0
8 21 23 0
-48 7 -16 41 -22 -5 -39 0
52 -14 28 23 0
-21 -40 20 0
-11 24 27 -49 -50 48 -17 -31 0
-1 51 0
-26 -49 7 0
11 -16 -6 32 25 0
-4 -12 27 44 -52 2 0
-47 -22 38 -32 -48 0
-19 46 -48 -20 43 38 0
-1 -28 3 -24 -45 14 0
26 39 11 17 -47 0
23 -48 -14 0
-39 -38 -50 -36 29 0
14 -12 33 0
12 -25 50 -7 -37 -35 40 -5 0
26 -51 -10 0
24 2 -23 -52 0
-18 47 48 46 0
-12 43 -41 0
-19 -50 44 -9 -22 31 -41 -26 -7 -13 0
-15 14 18 -8 -38 0
-12 11 43 0
24 -50 0
43 -52 -37 44 -8 0
1 20 -29 9 18 0
-3 -48 4 0
45 47 14 0
11 29 -7 -46 35 31 30 0
-42 -44 -40 -8 -51 19 0
-34 -39 48 37 -18 0
-9 40 -24 -14 0
-27 48 32 -33 -24 47 -45 -9 0
38 -18 20 0
-47 -18 49 42 9 14 0
47 14 -51 0
-50 52 -25 47 0
-6 -24 -11 -39 13 -38 12 7 0
-9 14 -13 24 0
-44 46 32 35 -43 -5 -19 -42 -4 0
13 -30 24 0
21 -17 -41 -39 0
-46 -23 -25 0
-1 23 17 -35 25 0
-24 -30 36 52 49 -38 -42 6 0
19 2 28 -26 39 -4 0
-15 48 -11 0
39 34 -4 0
-21 -11 -32 19 -18 9 -27 -25 -2 -29 0
-4 -5 -23 -30 44 0
-34 6 -35 0
-23 28 -34 31 8 0
5 -39 -26 24 -52 7 46 -43 0
-44 -50 39 -38 0
-26 -27 -14 0
-42 3 36 -29 33 -16 0
