c seed 51226
c max width 28
c layers 4
c layer[0] = [1..14] w=14 v=14 c=49 r=3.50
c layer[1] = [15..41] w=27 v=41 c=159 r=3.88
c layer[2] = [42..67] w=26 v=53 c=201 r=3.79
c layer[3] = [68..87] w=20 v=46 c=198 r=4.30
p cnf 87 607
9 6 11 -10 0
14 -8 7 -1 0
1 -4 -6 -9 -12 5 0
3 10 -13 0
2 4 -3 -5 -7 0
-14 12 -2 8 -11 13 0
13 -6 5 10 3 0
11 4 -5 3 0
5 -1 10 0
9 -4 0
-10 14 -2 0
-11 4 -7 0
1 11 -12 10 4 0
-10 -3 0
-8 -7 12 -14 -3 0
-14 -4 -9 3 1 -12 0
14 -13 2 0
-4 -12 13 -3 -6 -7 0
11 -14 0
-4 2 -12 10 9 0
6 -12 2 0
11 -1 -7 13 0
-14 4 12 0
10 4 11 0
-6 1 -12 0
-4 8 -2 -11 0
8 2 -10 -5 -7 -6 0
-5 -2 13 0
-1 -8 13 5 0
-9 14 3 -7 -2 -10 0
-14 -13 -3 0
-8 -3 0
-1 -6 -14 -2 0
5 8 -4 1 0
3 7 -4 0
8 12 -4 0
-4 -6 -7 -12 0
-2 -4 0
-4 -6 -14 0
9 -12 14 6 8 -2 -7 4 0
-7 -1 11 0
-14 -6 -10 0
4 -14 -13 -9 0
14 -5 12 0
1 7 -2 8 3 0
14 -4 9 -10 -12 0
-6 -7 2 0
-8 3 13 0
-2 9 -13 0
14 -38 21 7 -4 0
12 10 -11 0
2 -7 -25 0
2 -11 -13 0
23 13 29 -14 0
27 -19 -24 13 8 0
-26 -33 11 -5 -17 3 1 -7 8 39 0
-36 8 4 5 0
28 -21 34 -32 -10 0
41 -9 -10 0
-12 -10 -41 -7 0
-1 -14 8 -4 19 -5 33 0
30 -28 24 14 -29 0
6 17 9 -12 0
5 -34 -7 26 36 32 0
-8 2 -14 -13 -39 0
-37 35 8 0
9 18 -23 0
5 -27 25 -35 14 22 0
-1 -5 -11 -9 0
-16 -2 -22 0
38 -18 -10 15 -6 14 11 0
20 31 13 0
-13 16 37 -40 -20 -31 -15 -30 6 -11 0
40 -24 -35 0
6 27 -18 25 2 38 21 0
-29 -9 7 0
2 -28 13 39 0
-15 31 -12 0
-19 -2 -37 0
17 -31 39 3 0
6 -41 11 -38 35 -14 -5 0
8 -38 -22 21 -5 0
-9 29 8 -3 24 0
14 -11 13 -34 6 0
4 10 -18 -38 -35 -33 -7 22 15 1 0
-31 3 -16 -37 -2 18 0
30 -38 7 2 0
-37 11 -12 8 0
11 28 7 0
-9 39 32 0
-18 -37 -17 40 0
-10 -14 28 -7 0
14 -19 -22 -11 16 3 -4 0
36 9 28 7 0
40 30 -33 36 38 13 -9 0
-17 -25 1 0
10 14 -8 36 -3 26 29 12 0
8 -11 7 25 0
7 -4 40 0
31 -34 16 0
28 -8 35 0
2 -22 -4 -38 27 -8 16 0
2 3 38 23 -6 -29 -14 0
-14 39 -31 21 30 0
-1 19 -41 0
-36 33 -6 11 5 0
-2 11 -23 14 -7 0
-20 -5 7 41 2 10 0
6 -37 -19 0
-32 -2 4 12 0
-2 -10 31 34 13 0
-5 25 -30 13 10 0
-28 -33 -3 0
-38 -2 11 0
5 -1 0
-12 11 21 0
-29 -34 13 0
-7 -32 -8 4 0
-14 4 -36 -8 -22 0
-6 -13 -36 32 0
33 7 18 -25 -10 13 0
-16 -6 -23 -39 0
36 10 23 -5 0
-7 34 -9 0
10 -33 -36 -5 -22 0
18 -17 31 -7 0
27 37 -18 14 -33 0
-13 41 -5 0
4 33 -37 -36 -16 -8 -30 -14 0
-15 -13 33 0
-8 -2 -41 1 0
28 -5 21 -24 -2 0
-10 11 -41 0
-25 -34 17 -26 -33 0
-5 -1 -7 2 -27 0
6 -35 -13 11 14 0
-7 20 10 0
18 -7 14 0
-25 -31 -7 14 -3 33 21 0
-9 -24 -13 -19 -3 -6 -39 0
-6 -12 5 33 -41 0
-12 37 -23 1 -17 0
-33 22 -31 -3 0
-14 -5 -8 3 -18 0
27 -15 -12 -19 0
11 27 3 -26 9 24 0
-25 9 -28 0
-36 31 -30 0
-1 23 26 0
16 1 -38 -6 0
-14 -13 9 4 27 -36 -10 -19 0
-30 25 -12 0
-32 -7 -2 13 -11 12 -24 -40 0
32 31 -6 0
40 -11 2 35 0
9 -5 4 41 0
16 -14 -7 -35 3 0
-6 30 40 0
1 -18 -13 0
6 -25 37 -1 0
11 6 -41 -7 9 0
-23 -17 -14 -12 41 -28 24 8 0
22 -28 5 0
-32 1 21 6 34 0
13 15 28 0
37 20 26 0
-3 -16 -13 -8 0
-40 -14 -37 -41 25 -7 -12 -21 3 0
-6 39 -9 0
-16 -27 13 0
31 19 11 -41 35 -18 40 0
-39 -28 -2 -13 -19 -30 -10 0
8 15 -34 0
33 7 14 0
12 -3 -31 -1 39 18 0
5 7 14 -26 0
2 16 24 0
7 37 23 -14 0
11 -15 35 0
13 28 -19 20 0
-10 16 0
-5 -36 -32 0
-1 -3 27 0
36 19 -6 0
8 -21 -11 0
-10 26 30 0
-4 20 -9 -17 -8 33 23 41 -12 0
-3 -6 -5 -27 41 -1 13 0
10 26 -18 -12 -20 13 0
-13 -38 29 18 0
-26 38 -8 0
-14 31 25 0
30 -27 -10 0
-7 6 41 0
-6 9 0
-8 1 -10 14 -27 0
-1 -11 36 0
-3 -10 -32 1 -35 -2 13 11 0
30 -10 8 0
29 38 6 10 -8 31 -4 40 0
-16 6 -31 36 20 0
28 10 -32 11 0
12 -18 21 -28 25 0
-13 17 37 34 35 -14 0
34 -41 -7 0
3 -11 41 0
-26 -27 36 0
-37 -30 -34 0
-2 66 54 -61 67 -58 0
38 44 63 0
-19 -55 -51 -44 -13 0
33 51 -66 -9 0
24 -12 14 -18 0
6 -63 11 3 -15 65 60 -10 57 -54 0
50 -47 11 0
-5 -3 -19 0
-59 -64 4 20 0
-34 9 52 -62 0
56 -36 64 23 61 42 -24 0
-60 -56 -27 0
49 -28 31 55 -12 1 22 18 -19 58 0
-42 -34 -14 4 -39 47 -48 0
2 46 -49 0
-50 11 -53 29 0
-67 -17 -57 43 -46 48 0
36 59 -3 0
3 -28 -35 62 -52 -10 -43 0
-14 -45 -23 -41 0
-65 53 -11 45 -8 -12 47 -46 -18 0
-26 64 7 10 0
41 17 -60 -49 44 0
-51 -53 -36 11 -58 0
49 12 -55 -13 27 0
57 -40 0
9 -49 11 -54 55 0
53 2 56 -45 38 51 -12 -52 -34 0
40 33 -27 0
-27 9 39 0
-2 -20 -43 0
39 59 14 -30 51 -50 0
58 -12 -4 0
50 -56 6 -66 0
17 -2 -25 -47 62 28 0
26 3 -1 54 -43 2 0
-50 60 -45 0
-53 -57 -59 0
-33 46 45 0
-11 -46 -19 0
-10 8 -21 60 0
49 -55 4 48 15 19 63 -44 18 54 0
51 42 -48 0
-44 -1 -17 20 2 0
-14 -48 37 0
-49 -44 -62 -55 -11 -5 0
-19 -30 -21 0
56 14 57 0
49 -58 46 0
-1 -48 58 0
16 -56 49 -57 0
-20 -52 -49 30 0
-46 12 -50 0
-27 -15 30 1 37 48 -57 0
37 61 -64 67 0
44 -5 9 0
3 -51 10 -63 0
3 12 36 -51 -8 -31 63 0
-46 64 -45 57 -53 0
57 -46 -10 -60 47 58 0
-4 -67 -14 0
-47 -1 -57 13 50 59 0
17 -15 -38 0
57 -64 -3 1 -13 -65 -17 -66 -67 0
6 -49 39 0
-10 33 11 -65 -56 -44 0
-57 50 -3 0
-53 -22 2 -64 -19 0
20 -65 -46 27 0
61 54 -50 0
1 54 -51 0
-57 -53 -17 0
22 -16 33 -4 0
-14 -66 7 0
46 -5 -59 13 0
-25 -65 26 -61 29 0
-60 24 -47 0
-46 67 44 -31 57 50 51 -34 0
49 9 -20 -55 -26 63 37 58 -6 0
-61 -53 51 0
-7 -5 -50 -58 -19 -57 -3 0
17 55 66 0
-63 66 -53 0
-58 27 57 0
67 -13 -51 0
-47 13 9 -2 -45 0
63 14 -48 24 66 -60 0
-12 48 19 0
-22 9 54 -12 0
34 22 -64 0
-11 3 -60 46 50 0
-24 57 -54 38 48 0
-47 -62 -52 0
-3 57 35 -62 4 -48 0
-49 50 32 0
44 14 -59 0
-36 -26 39 -7 57 0
-14 -5 -53 0
12 -55 60 0
-43 -24 -10 -32 -14 -5 0
37 54 36 0
-47 -30 44 -43 39 -6 -36 0
-48 67 -64 38 1 55 39 21 -17 53 0
42 13 -33 21 46 0
-12 -14 58 0
-49 51 -48 0
43 -47 18 0
34 -17 21 46 7 42 62 -50 0
-27 5 -41 12 -32 13 55 -65 0
1 -46 15 43 65 0
40 -67 20 66 -36 0
-19 -40 47 0
37 18 55 0
57 -20 1 21 -5 -51 -53 0
-47 -2 -63 26 -49 -58 -56 0
-1 63 -11 -37 0
17 -11 15 0
64 -42 46 -50 58 15 65 8 41 54 0
10 -12 -29 -63 -46 0
37 49 -1 0
-17 62 -55 0
38 36 -61 0
13 -38 66 -11 0
-1 -33 43 17 0
-63 8 9 46 -42 0
51 -3 -60 -61 57 59 0
4 37 12 0
-8 2 1 -9 48 -6 -50 0
-63 -58 -48 62 0
-41 6 59 -64 0
19 -61 -67 49 -36 0
-10 -7 22 -39 0
-46 57 2 0
-5 -29 63 0
2 -45 -7 12 1 0
-6 56 24 49 0
27 60 40 0
25 -46 -61 0
-14 1 13 67 -19 -57 6 0
48 -16 -44 -42 -27 67 0
27 -40 -57 0
-49 -36 -20 64 0
-7 23 -12 5 57 6 -42 -17 -65 0
-46 -19 58 52 0
-5 -43 18 -35 0
48 -50 64 -9 0
52 53 -60 3 -41 -13 11 44 0
27 30 31 24 40 17 0
62 22 7 -67 30 -55 15 0
-33 65 39 -40 -14 0
30 -48 5 8 -51 18 34 -27 -14 0
10 16 -14 12 55 0
-47 -66 38 0
-47 -32 -15 -59 34 13 53 8 0
-58 64 -21 -30 0
-31 -10 -49 0
-65 -8 5 50 -28 -66 0
20 -38 7 -45 -24 0
1 52 67 -17 11 -65 -34 0
-29 31 15 -25 0
-46 62 56 0
-5 18 -39 11 24 -43 -56 67 30 -33 -17 58 0
-8 -60 -34 0
-21 47 -8 52 -48 0
-12 9 -25 0
-7 64 57 28 -66 -56 -20 46 0
-44 17 40 0
14 -61 22 0
8 58 -26 30 0
-66 -21 -8 0
24 29 -5 0
-61 -45 19 0
-50 -55 4 41 28 54 -37 0
-6 -59 5 0
-29 12 30 66 -42 -51 6 0
17 65 50 0
53 -3 -59 0
-56 -31 -4 -51 -64 -24 0
-46 49 -8 -48 61 -15 54 0
44 23 -56 7 67 -13 -48 -17 -26 49 0
56 50 -66 9 -22 0
45 -54 48 53 -57 -2 0
-58 -47 53 -66 -7 52 -14 61 0
-56 -14 0
46 -22 66 -8 -57 9 -11 0
12 5 -4 0
48 27 58 47 -43 52 -10 0
58 13 65 39 -49 0
58 65 28 53 -23 21 4 0
-19 56 10 -47 -37 0
-2 -1 -48 -30 28 24 -15 0
-57 47 -7 0
41 25 5 -62 45 33 0
36 35 4 14 0
-6 23 51 0
-50 47 43 0
-6 51 64 0
-13 11 45 48 0
40 64 41 0
-9 -66 12 -37 -10 14 3 -64 0
-66 9 24 -45 0
-77 -72 35 84 0
-83 75 53 19 0
54 -84 77 0
12 -43 79 -69 0
-70 -6 -22 0
-66 73 -71 -86 -74 0
48 -85 82 -50 70 62 0
-81 53 -80 -8 69 85 0
47 -50 -17 59 76 87 0
-4 71 -82 0
-78 44 81 -40 9 -39 -68 0
-75 -73 -6 0
83 86 39 0
80 12 61 -79 -14 72 56 0
-64 -87 35 0
2 -76 78 0
74 68 -46 71 -52 85 0
-74 -75 46 85 -82 86 22 -72 -76 0
-86 -83 -82 1 -19 85 -30 76 -3 0
82 80 -9 87 0
23 42 78 0
-25 38 41 73 0
-31 67 8 23 -81 -80 -84 0
41 69 48 -35 -57 -84 -32 -83 78 0
-81 -73 0
-80 4 43 0
62 -63 74 0
86 4 78 87 47 42 70 0
-75 -76 -61 -6 0
-68 -81 -73 70 65 72 0
24 -70 -58 -60 -87 0
7 4 -22 0
49 43 86 0
-62 -59 5 46 -68 32 -77 -84 82 -19 0
-36 74 75 -24 0
87 70 -81 77 0
-75 -86 -61 15 0
-73 26 4 -76 6 0
40 83 -21 31 0
84 60 -10 64 75 -5 70 0
70 11 13 0
44 -82 -84 0
84 69 -74 -68 -83 0
31 -74 -77 84 86 0
-71 -61 7 0
87 -54 42 -30 62 0
71 86 -77 28 68 0
-12 -25 68 52 -64 57 0
-70 -17 72 86 68 71 11 74 0
42 -50 81 0
74 81 78 0
78 -82 0
-74 84 32 0
85 -50 70 -73 -9 -78 82 0
54 80 85 44 32 0
-74 -31 24 87 0
75 -77 52 25 -76 80 87 0
37 58 -50 -78 0
-54 7 42 0
-81 -32 -82 -87 -78 0
-72 64 -2 78 -54 -85 83 -76 0
-74 23 75 0
44 -79 50 -75 0
-26 -70 82 27 0
78 68 10 0
-56 78 -79 47 0
78 9 -28 -87 -7 83 72 -66 -74 0
-80 -56 -22 -54 -86 71 0
-68 -57 16 -64 35 0
-70 50 0
-69 -82 87 62 0
-68 5 79 -22 61 47 0
-21 59 74 -11 0
86 -44 87 68 0
58 80 11 0
-62 -31 -75 0
-58 80 87 44 0
-69 -78 -46 85 0
78 70 46 21 38 0
-86 -11 -20 -76 0
-1 -82 -71 0
-70 82 -74 0
55 -47 -59 -34 0
-70 -86 56 65 -7 49 0
67 9 72 45 68 47 0
-79 52 -71 0
56 85 -73 0
8 -85 -48 -67 75 -81 -1 -73 66 0
85 10 -63 -48 -44 0
5 -41 86 0
75 -59 27 -20 -54 -73 21 56 50 0
75 73 51 0
79 -43 -64 0
-8 -79 -19 77 18 0
-6 -58 48 -78 0
65 -7 -55 -12 0
81 -2 -73 -83 72 15 0
-13 -77 -54 69 -60 80 73 0
82 -86 -87 -75 22 -65 79 0
-77 47 -49 6 38 -31 0
82 -86 75 -9 45 -61 74 -43 53 -76 64 -7 72 0
-22 -67 -46 -43 -75 0
-79 45 24 0
-76 -51 -8 85 28 82 -2 74 -62 0
-61 9 53 58 82 0
-84 69 -83 76 -8 -71 -79 -72 0
-12 82 -6 72 -61 0
-77 75 -50 0
26 -65 -35 -52 0
57 -81 68 62 0
-41 -3 4 0
-80 -51 63 -73 -68 76 74 0
82 -23 -37 48 66 4 0
-7 83 81 27 -42 0
-69 -35 -39 -4 0
78 -63 60 0
-69 10 -21 72 0
66 -83 53 0
-58 -82 -52 -42 0
70 -51 -78 -83 67 12 0
-86 -85 -59 84 -47 0
-28 51 -36 68 56 67 13 -60 -57 0
-73 77 60 0
-12 -68 -70 0
-69 -80 0
87 68 71 73 5 0
-67 -6 2 -57 61 0
81 60 22 -79 0
39 9 -87 85 48 0
13 58 80 0
83 79 22 26 0
55 68 86 -14 0
-83 -38 84 56 -26 71 -78 69 -19 0
65 -75 82 0
54 79 23 0
61 16 -54 -79 -86 13 -68 78 70 75 -4 -82 0
-69 -79 71 57 0
-3 16 -74 56 -69 0
80 68 87 0
-80 -69 45 0
87 -44 30 0
74 -78 -33 -37 71 51 -1 0
86 -73 -68 -9 0
70 -60 -11 0
25 -62 -74 87 -18 -72 0
-84 85 34 -74 -59 -79 -56 -70 53 -48 87 -82 0
-17 54 74 87 9 -84 0
-82 87 85 -70 86 -67 -81 22 0
-87 51 14 -79 -64 0
77 -74 78 60 83 42 0
74 -47 -83 69 0
60 -45 52 78 0
-12 -84 -74 0
61 5 -24 13 0
-78 -10 -9 -18 20 0
-69 -56 8 0
87 54 4 45 -21 -73 -2 0
-57 69 -70 -62 0
-87 -52 6 84 -46 -81 0
36 83 11 -76 0
-85 -59 46 -76 -63 0
-77 78 79 0
52 -18 -62 -49 -36 84 0
-45 77 72 0
-79 -86 12 0
-78 5 -68 52 0
-13 68 -53 0
77 80 76 -72 70 -85 -27 78 10 0
-78 -45 86 14 -59 0
-45 83 -68 0
-54 12 51 73 -48 0
-72 -60 -61 49 0
-58 -70 -55 0
73 -76 -66 0
-61 86 -74 0
-47 26 68 63 -43 0
42 -63 -70 0
17 56 -49 50 -70 84 71 -78 0
85 83 69 0
-79 -24 -7 6 82 -50 87 -42 -63 66 -20 0
-77 -57 69 -40 -79 0
68 -66 -82 -51 -13 0
-25 87 73 0
49 4 -82 75 0
81 -22 84 5 37 58 -42 2 0
13 -10 -79 67 0
-68 -79 85 0
-83 -52 -66 72 0
-73 -14 -80 -71 42 -67 12 -38 0
-44 -9 85 52 87 -64 -81 36 0
-29 48 77 -59 -75 -71 -14 22 44 -74 0
-63 38 45 -5 0
-26 85 3 0
10 -27 -9 -86 -72 69 76 60 66 -87 32 0
69 -34 -68 7 -45 0
13 3 83 -51 55 80 73 0
72 -2 83 0
-65 -47 -86 0
