c seed 609265
c max width 19
c layers 2
c layer[0] = [1..19] w=19 v=19 c=74 r=3.89
c layer[1] = [20..32] w=13 v=32 c=140 r=4.38
p cnf 32 214
4 1 10 11 -7 0
14 -1 -18 0
-19 17 -5 -11 0
-16 13 -10 5 2 -15 -8 3 -9 0
18 -2 -12 19 0
16 7 -6 12 9 0
-17 -3 -4 6 -14 8 -13 15 -19 0
13 -19 8 0
2 8 -4 -1 0
-8 -4 19 -5 -17 0
-13 -15 9 0
-6 -4 3 -17 19 0
16 -4 5 -6 12 -1 0
-10 -5 -13 -3 0
10 -5 -1 -4 0
-7 -6 -14 0
-6 13 -2 16 -7 -4 9 14 -8 3 0
6 16 -10 0
-15 4 -16 0
-19 -15 17 -7 0
-11 17 7 12 0
-4 -6 10 1 18 0
2 1 8 0
-19 -15 8 11 0
18 -3 0
-1 -10 8 3 -7 -11 0
8 -17 -15 0
-16 -9 -15 3 0
-1 -2 0
17 12 -16 0
-18 -17 -16 -5 11 0
2 5 16 19 -18 17 9 4 0
9 -10 17 0
7 -9 -3 -8 11 4 0
-5 8 4 0
-15 -3 -13 11 12 0
-14 -19 -9 -16 0
18 -17 8 3 7 0
-10 2 12 7 3 17 0
11 -4 14 -12 0
17 -2 -8 9 6 0
-10 15 9 6 1 14 13 0
4 -19 7 -16 -15 0
16 11 -10 13 0
-19 -6 10 -11 16 -9 0
-18 -3 11 6 1 0
-16 -14 11 -10 0
-19 -18 9 0
-17 -1 0
1 10 -3 5 0
-16 4 0
-11 -10 -18 0
-8 -15 7 -9 -11 -2 13 17 -16 0
-18 1 11 19 4 -13 8 -9 0
-16 13 11 -6 -1 0
5 16 14 7 0
-11 -6 13 0
13 10 0
-13 -2 19 0
-14 -4 15 0
-1 6 -8 0
18 2 5 0
-3 -19 4 -18 0
15 19 6 0
13 -12 9 15 -6 -3 14 4 0
-13 2 9 11 19 7 15 0
10 12 -1 -13 3 -9 0
-15 -14 12 0
16 -4 13 -10 0
14 1 -2 4 12 13 -6 7 -10 -15 0
8 -10 -4 0
-9 -12 -6 -4 0
12 15 0
18 2 9 -8 0
-26 21 -18 -28 25 4 0
-29 -4 -11 -27 16 -5 0
-19 31 30 -15 0
-21 -5 -4 -16 26 0
-31 6 22 18 -23 0
23 11 -20 -14 0
4 -30 -16 -17 0
32 -12 -9 0
-25 -10 -24 -7 0
-7 -2 9 -1 3 0
-3 -32 29 -22 0
27 -1 28 20 -7 0
24 -25 3 -26 0
23 15 -7 0
-32 17 -25 0
25 11 22 0
7 -31 -2 -32 22 5 15 24 -10 0
-15 23 -20 1 0
-18 1 -24 -30 -3 0
-23 -4 30 -14 -5 -21 26 0
-16 -30 32 -28 0
20 4 28 -8 -23 0
17 -20 15 0
-23 -9 -30 0
-23 -2 26 30 19 -27 29 0
-16 -3 -23 2 -28 -22 0
-10 -32 29 -24 -16 0
-5 -30 -25 -31 15 14 26 0
-28 26 29 5 9 0
-30 25 2 0
18 -25 -31 0
-3 14 -32 0
20 32 13 -25 -14 -1 27 0
8 23 29 0
-17 -29 5 0
-27 2 23 20 -1 0
27 -15 -6 -32 0
17 11 25 30 9 8 0
-27 15 -31 7 0
25 24 32 8 0
3 4 -7 -21 13 14 29 -30 17 -22 0
30 22 -29 -5 -9 0
-30 11 -5 0
-14 -19 24 20 -2 0
-23 -15 -7 17 -14 -21 -11 0
9 -2 20 0
29 -30 28 -14 -26 0
-26 -18 20 -29 1 17 9 30 0
18 -16 -23 5 -20 30 0
11 -13 -18 -16 0
-6 15 22 29 0
11 2 8 0
32 -29 -25 0
31 29 24 -23 -28 22 0
-16 -32 12 0
20 31 -16 23 26 0
14 -1 -21 -7 0
2 -19 12 28 0
-6 -23 -16 -13 -32 -21 5 -2 -30 -14 7 -26 18 -27 0
-12 -1 25 0
-22 -24 9 -4 0
4 28 3 -24 20 22 5 -8 30 -31 0
-9 15 25 -30 -13 -23 0
31 26 25 0
-2 17 -26 0
-29 -28 -23 0
6 -19 32 0
-18 26 -17 -10 -24 -20 -11 -5 -22 0
7 -26 -28 32 -13 0
-2 -4 20 -3 -6 14 0
19 30 23 0
-4 -22 27 0
13 -18 10 -6 0
-26 -4 0
22 -28 -27 -11 -1 6 0
24 -25 19 -27 0
-10 8 29 0
-23 5 24 -25 0
-22 1 -7 0
-1 -11 -15 20 -26 -16 -27 0
-1 6 30 20 -28 0
32 -20 -6 0
12 9 30 15 29 0
-19 13 6 27 24 -18 -15 0
29 -14 10 5 4 0
-31 25 24 0
-23 31 8 22 32 0
-20 2 -13 10 -15 0
-30 -20 -24 -31 0
-23 31 15 32 10 28 25 -11 0
-7 -25 -6 -32 -28 -27 -13 0
-18 6 24 0
12 -24 25 -20 0
-13 9 -14 -25 0
-30 -1 -19 -5 -11 22 6 -9 -29 0
-12 -8 10 30 0
-32 21 3 -30 -12 0
27 -23 -29 22 32 0
-10 21 -26 7 16 -25 0
-29 12 19 -6 -21 5 0
3 30 6 -21 0
8 12 0
20 17 -31 19 0
20 24 -26 25 -28 -27 18 -5 0
26 -5 -3 0
17 -24 -11 -8 0
30 -1 32 0
-13 24 15 0
24 -18 32 0
29 8 -19 20 0
4 -27 -12 0
28 26 -19 -14 22 -25 -3 0
-27 -30 24 0
28 -32 -29 0
-18 -13 28 0
-19 -21 -22 -15 13 0
7 20 -32 0
-11 27 -23 -8 -24 0
-12 -15 27 0
-20 24 -27 0
-25 1 32 -31 14 0
5 25 -22 3 -11 30 -17 -2 0
-28 -7 17 1 0
-12 -18 16 0
-7 30 -22 -8 -11 0
-19 12 -23 29 17 -5 13 -2 -28 15 10 -22 0
-26 -29 -18 -16 0
11 -25 -1 0
24 -2 -26 -23 0
-9 -21 27 -32 0
14 17 -26 -8 -31 0
23 -29 31 -12 -27 3 0
-4 -23 12 16 0
-21 4 -7 0
-17 14 -29 -20 0
12 21 17 1 0
-13 -1 -20 0
27 31 16 8 0
-25 27 -1 23 -17 -31 -2 -6 32 0
32 -18 -21 -26 0
